LAMMPS (22 Jul 2025 - Update 6)
KOKKOS mode with Kokkos version 4.6.2 is enabled
  will use up to 1 GPU(s) per node
Kokkos::OpenMP::initialize WARNING: OMP_PROC_BIND environment variable not set
  In general, for best performance with OpenMP 4.0 or better set OMP_PROC_BIND=spread and OMP_PLACES=threads
  For best performance with OpenMP 3.1 set OMP_PROC_BIND=true
  For unit testing set OMP_PROC_BIND=false

MPI detected: For OpenMP binding to work as intended, MPI ranks must be bound to exclusive CPU sets.

  using 1 OpenMP thread(s) per MPI task
  using 1 OpenMP thread(s) per MPI task
Reading data file ...
  orthogonal box = (0 0 0) to (51.095499 29.5 46.8)
  1 by 1 by 1 MPI processor grid
  reading atoms ...
  4000 atoms
  read_data CPU = 0.007 seconds
Neighbor list info ...
  update: every = 1 steps, delay = 0 steps, check = yes
  max neighbors/atom: 2000, page size: 100000
  master list distance cutoff = 6.8
  ghost atom cutoff = 6.8
  binsize = 6.8, bins = 8 5 7
  2 neighbor lists, perpetual/occasional/extra = 2 0 0
  (1) pair meam/kk, perpetual
      attributes: full, newton on, kokkos_device
      pair build: full/bin/kk/device
      stencil: full/bin/3d
      bin: kk/device
  (2) pair meam/kk, perpetual, half/full from (1)
      attributes: half, newton on, kokkos_device
      pair build: halffull/newton/kk/device
      stencil: none
      bin: none
Setting up Verlet run ...
  Unit style    : metal
  Current step  : 0
  Time step     : 0.001
Per MPI rank memory allocation (min/avg/max) = 12.83 | 12.83 | 12.83 Mbytes
   Step          Time         Atoms         Temp          Press           Pxx            Pyy            Pzz           PotEng           Lx             Ly             Lz           Volume        Density    
         0   0                   4000   300            705.47614     -336.89472     -410.73646      2864.0596     -19490.558      51.095499      29.5           46.8           70542.446      4.5082987    
      1000   1                   4000   312.3408       929.04095     -371.6711      -195.8533       3354.6473     -19333.084      51.206525      29.564101      46.901692      71003.293      4.4790375    
      2000   2                   4000   300.30881      189.7844      -852.78927     -1219.0838      2641.2263     -19335.908      51.218063      29.570763      46.912261      71051.301      4.4760111    
      3000   3                   4000   304.00122     -135.98467     -1605.588      -1419.6776      2617.3116     -19336.535      51.221598      29.572804      46.915499      71066.015      4.4750844    
      4000   4                   4000   303.77245     -401.79387     -1680.12       -1725.0587      2199.7971     -19334.592      51.226698      29.575748      46.920169      71087.241      4.4737482    
      5000   5                   4000   294.3656      -737.82545     -2048.7583     -2202.8436      2038.1256     -19333.614      51.232468      29.579079      46.925454      71111.266      4.4722367    
      6000   6                   4000   299.06907     -1717.9736     -2890.2314     -3156.1575      892.46812     -19330.632      51.251721      29.590195      46.943089      71191.466      4.4671985    
      7000   7                   4000   299.0689      -1241.6703     -2484.9573     -2679.1752      1439.1215     -19336.531      51.239248      29.582993      46.931664      71139.501      4.4704617    
      8000   8                   4000   300.37085     -441.1615      -1750.0587     -1731.0114      2157.5856     -19334.217      51.228132      29.576576      46.921483      71093.214      4.4733723    
      9000   9                   4000   297.27779      305.24177     -1081.9489     -961.38848      2959.0627     -19331.241      51.219021      29.571315      46.913138      71055.287      4.4757601    
     10000   10                  4000   292.11983      210.46493     -1319.5791     -1037.714       2988.6879     -19332.766      51.217967      29.570707      46.912172      71050.9        4.4760364    
     11000   11                  4000   306.67435     -79.16742      -1519.5387     -1324.3578      2606.3942     -19332.908      51.223798      29.574073      46.917513      71075.169      4.474508     
     12000   12                  4000   308.81414     -86.685636     -1450.5361     -1527.4044      2717.8837     -19335.325      51.22226       29.573186      46.916105      71068.77       4.4749109    
     13000   13                  4000   302.81458     -184.05414     -1389.8682     -1773.8292      2611.535      -19333.081      51.2249        29.57471       46.918523      71079.76       4.474219     
     14000   14                  4000   297.19749     -209.01738     -1496.5458     -1687.2152      2556.7088     -19332.953      51.224759      29.574628      46.918393      71079.17       4.4742562    
     15000   15                  4000   311.12801     -645.60311     -2007.9701     -2062.8829      2134.0437     -19334.944      51.232243      29.578949      46.925249      71110.331      4.4722955    
     16000   16                  4000   302.76123     -674.53206     -1835.1348     -2070.2163      1881.755      -19336.233      51.231276      29.578391      46.924362      71106.302      4.4725489    
     17000   17                  4000   301.75604     -592.67985     -1854.3092     -2074.2074      2150.4771     -19329.24       51.235036      29.580562      46.927806      71121.959      4.4715643    
     18000   18                  4000   296.4779       98.854968     -1430.7659     -1231.7517      2959.0825     -19336.085      51.218347      29.570926      46.912521      71052.483      4.4759367    
     19000   19                  4000   305.98953      703.16167     -875.03842     -503.9276       3488.451      -19335.14       51.210022      29.56612       46.904896      71017.843      4.4781199    
     20000   20                  4000   300.04983      478.50391     -694.32828     -1037.1819      3167.0219     -19336.409      51.212286      29.567427      46.90697       71027.263      4.477526     
     21000   21                  4000   308.69355      212.05962     -1025.5057     -1281.6887      2943.3733     -19331.649      51.220708      29.572289      46.914683      71062.308      4.4753178    
     22000   22                  4000   296.89801      65.091091     -1271.7426     -1390.101       2857.1168     -19335.331      51.218722      29.571143      46.912864      71054.045      4.4758383    
     23000   23                  4000   298.91055     -24.749934     -1185.815      -1482.8536      2594.4188     -19333.989      51.220915      29.572409      46.914873      71063.171      4.4752635    
     24000   24                  4000   299.54122     -320.90176     -1740.176      -1692.8971      2470.3678     -19336.17       51.225251      29.574913      46.918845      71081.221      4.4741271    
     25000   25                  4000   294.11218     -944.83495     -2291.3859     -2173.0711      1629.9522     -19332.555      51.237262      29.581847      46.929845      71131.231      4.4709814    
     26000   26                  4000   306.121       -1387.9467     -2699.8654     -2825.7845      1361.8098     -19332.807      51.244263      29.585889      46.936258      71160.394      4.4691491    
     27000   27                  4000   307.7338      -810.24361     -2006.9912     -2209.2255      1785.4858     -19337.082      51.233463      29.579653      46.926365      71115.408      4.4719762    
     28000   28                  4000   293.9255       179.02223     -1169.5882     -1257.596       2964.251      -19332.635      51.218817      29.571198      46.912951      71054.438      4.4758135    
     29000   29                  4000   302.62791      279.36171     -1355.0373     -831.05472      3024.1771     -19331.641      51.21846       29.570992      46.912624      71052.954      4.475907     
     30000   30                  4000   300.63409      307.14808     -1261.6659     -845.5937       3028.7038     -19336.266      51.214485      29.568697      46.908983      71036.411      4.4769494    
     31000   31                  4000   302.3938       395.60148     -1352.9576     -585.88109      3125.6431     -19334.283      51.214378      29.568635      46.908885      71035.967      4.4769774    
     32000   32                  4000   295.25152      478.01212     -1204.8075     -643.08811      3281.932      -19335.36       51.211983      29.567252      46.906691      71025.999      4.4776057    
     33000   33                  4000   303.12945     -632.86142     -1890.6589     -2062.2908      2054.3654     -19333.022      51.232346      29.579008      46.925342      71110.757      4.4722687    
     34000   34                  4000   298.46352     -1085.5681     -2228.0975     -2667.8474      1639.2405     -19337.233      51.23572       29.580956      46.928433      71124.807      4.4713853    
     35000   35                  4000   298.24899     -748.83754     -2052.2761     -2185.3702      1991.1337     -19333.875      51.231336      29.578426      46.924418      71106.554      4.4725331    
     36000   36                  4000   298.44544     -215.16409     -1771.7097     -1465.4024      2591.6199     -19333.956      51.225301      29.574942      46.91889       71081.429      4.474114     
     37000   37                  4000   310.02281      115.91165     -1503.2677     -983.7267       2834.7293     -19336.273      51.219604      29.571652      46.913672      71057.714      4.4756071    
     38000   38                  4000   299.3665       1796.0819      280.93961      571.60035      4535.7057     -19335.05       51.191133      29.555214      46.887594      70939.285      4.483079     
     39000   39                  4000   299.38027      1755.5476      372.61986      186.56461      4707.4584     -19335.56       51.192339      29.555911      46.888699      70944.299      4.4827621    
     40000   40                  4000   303.44512      614.76198     -519.18414     -1035.2051      3398.6751     -19333.351      51.212605      29.567611      46.907261      71028.588      4.4774424    
     41000   41                  4000   297.01834      262.10612     -1008.938      -1224.4663      3019.7226     -19334.325      51.216694      29.569972      46.911007      71045.605      4.47637      
     42000   42                  4000   302.79639     -233.9123      -1690.8594     -1489.6101      2478.7326     -19332.098      51.227508      29.576216      46.920912      71090.616      4.4735358    
     43000   43                  4000   305.56734     -1129.1773     -2692.3714     -2277.3542      1582.1938     -19332.891      51.241433      29.584255      46.933666      71148.605      4.4698896    
     44000   44                  4000   304.59303     -1884.8183     -3383.7286     -2997.5966      726.87039     -19334.521      51.25122       29.589906      46.94263       71189.381      4.4673294    
     45000   45                  4000   297.20626     -1034.7222     -2577.3835     -2239.7365      1712.9534     -19335.52       51.235193      29.580652      46.92795       71122.613      4.4715232    
     46000   46                  4000   296.65124     -126.10833     -1309.0835     -1644.2087      2574.9672     -19334.6        51.221916      29.572987      46.915789      71067.335      4.4750013    
     47000   47                  4000   301.31137      532.47263     -836.82378     -974.61956      3408.8612     -19331.647      51.215096      29.56905       46.909543      71038.954      4.4767891    
     48000   48                  4000   302.42593      990.30003     -273.17199     -551.80046      3795.8726     -19335.734      51.204652      29.56302       46.899977      70995.503      4.479529     
     49000   49                  4000   302.62746      1187.9982     -74.228519     -292.4559       3930.6791     -19333.738      51.203915      29.562594      46.899302      70992.436      4.4797225    
     50000   50                  4000   298.30625      893.30322     -527.55733     -391.35616      3598.8231     -19338.726      51.204282      29.562806      46.899638      70993.964      4.4796261    
     51000   51                  4000   300.98893      29.793662     -1416.8496     -1320.2438      2826.4744     -19334.265      51.220019      29.571892      46.914052      71059.44       4.4754985    
     52000   52                  4000   300.46807     -128.9913      -1464.8544     -1562.7094      2640.5899     -19333.053      51.224216      29.574315      46.917896      71076.91       4.4743984    
     53000   53                  4000   297.78365     -328.97871     -1565.3074     -1837.277       2415.6483     -19335.887      51.224821      29.574664      46.91845       71079.428      4.4742399    
     54000   54                  4000   304.10169     -399.18244     -1588.3694     -1812.3585      2203.1806     -19332.301      51.230082      29.577702      46.923269      71101.331      4.4728616    
     55000   55                  4000   301.00897     -1424.7293     -2688.5748     -2739.9038      1154.2905     -19334.62       51.243921      29.585692      46.935945      71158.968      4.4692387    
     56000   56                  4000   300.04975     -1084.7386     -2737.0012     -2135.3097      1618.095      -19334.355      51.238465      29.582541      46.930947      71136.24       4.4706666    
     57000   57                  4000   303.19441     -24.053826     -1493.7567     -1169.7944      2591.3896     -19334.421      51.22167       29.572845      46.915564      71066.314      4.4750656    
     58000   58                  4000   298.89422      547.33929     -934.7231      -681.91072      3258.6517     -19334.711      51.212381      29.567482      46.907056      71027.656      4.4775012    
     59000   59                  4000   299.5389       406.30906     -774.13315     -1108.1672      3101.2275     -19333.835      51.214425      29.568662      46.908929      71036.163      4.476965     
     60000   60                  4000   299.33487      150.7907      -1167.362      -1327.0954      2946.8295     -19336.517      51.216149      29.569657      46.910507      71043.334      4.4765131    
     61000   61                  4000   295.81493      244.68656     -1199.1432     -1246.5201      3179.7229     -19333.992      51.21675       29.570004      46.911058      71045.835      4.4763555    
     62000   62                  4000   302            404.73431     -1244.9383     -766.63536      3225.7766     -19332.298      51.216725      29.56999       46.911035      71045.731      4.4763621    
     63000   63                  4000   300.98569      274.06496     -1136.0834     -1032.7054      2990.9837     -19336.487      51.215956      29.569546      46.91033       71042.532      4.4765636    
     64000   64                  4000   297.48346     -89.577728     -1606.2797     -1384.9551      2722.5016     -19327.353      51.227853      29.576415      46.921227      71092.051      4.4734455    
     65000   65                  4000   303.68094     -1055.9921     -2433.1555     -2518.0058      1783.1849     -19336.854      51.235794      29.581         46.928501      71125.118      4.4713657    
     66000   66                  4000   309.48374     -1327.503      -2649.8324     -2811.9618      1479.2851     -19333.742      51.243649      29.585535      46.935696      71157.837      4.4693098    
     67000   67                  4000   301.69091     -1201.1748     -2672.6339     -2446.3829      1515.4923     -19335.869      51.237896      29.582213      46.930426      71133.87       4.4708156    
     68000   68                  4000   303.5863      -653.98116     -2052.6831     -2143.0001      2233.7398     -19336.612      51.230632      29.578019      46.923772      71103.62       4.4727176    
     69000   69                  4000   302.29095      184.94682     -1208.0467     -1176.9417      2939.8289     -19332.609      51.220427      29.572127      46.914426      71061.139      4.4753914    
     70000   70                  4000   297.62362      569.07295     -918.90474     -742.94955      3369.0731     -19338.305      51.208729      29.565373      46.903711      71012.462      4.4784592    
     71000   71                  4000   299.49931      692.46427     -838.0439      -687.40643      3602.8431     -19333.994      51.209499      29.565818      46.904416      71015.666      4.4782572    
     72000   72                  4000   304.1193       438.56718     -1012.2242     -1029.765       3357.6908     -19335.901      51.212595      29.567605      46.907252      71028.545      4.4774452    
     73000   73                  4000   299.26657      185.39538     -1574.9189     -1008.7875      3139.8925     -19332.806      51.217287      29.570314      46.911549      71048.07       4.4762147    
     74000   74                  4000   307.17502     -886.98162     -2488.5348     -2105.2694      1932.8593     -19334.791      51.235071      29.580582      46.927838      71122.105      4.4715551    
     75000   75                  4000   302.69831     -1305.8055     -2858.0019     -2411.4455      1352.0308     -19333.988      51.242486      29.584863      46.93463       71152.99       4.4696142    
     76000   76                  4000   302.84278     -898.96051     -2470.1744     -2166.2346      1939.5275     -19334.673      51.234426      29.58021       46.927248      71119.422      4.4717238    
     77000   77                  4000   303.07195     -613.66497     -2090.2        -1982.6195      2231.8246     -19333.084      51.231375      29.578448      46.924454      71106.717      4.4725228    
     78000   78                  4000   298.49119     -134.85612     -1499.3194     -1502.3741      2597.1252     -19331.925      51.224987      29.57476       46.918603      71080.121      4.4741963    
     79000   79                  4000   307.44683      167.74832     -1209.5018     -1291.8861      3004.6329     -19333.462      51.219908      29.571828      46.91395       71058.978      4.4755276    
     80000   80                  4000   295.65649      892.98985     -336.51332     -790.33271      3805.8156     -19334.231      51.205075      29.563264      46.900364      70997.262      4.479418     
     81000   81                  4000   309.62255      1425.7555      221.12605     -259.12814      4315.2685     -19332.867      51.200528      29.560639      46.8962        70978.351      4.4806115    
     82000   82                  4000   299.74399      1396.1815     -81.800559      78.908164      4191.4369     -19337.087      51.197592      29.558944      46.893511      70966.143      4.4813823    
     83000   83                  4000   299.9219       471.25609     -1128.059      -608.64124      3150.4685     -19335.477      51.211843      29.567172      46.906564      71025.419      4.4776422    
     84000   84                  4000   301.21239     -216.57821     -1605.3901     -1523.2125      2478.868      -19337.703      51.222534      29.573344      46.916356      71069.909      4.4748392    
     85000   85                  4000   304.85131     -401.99256     -1788.8723     -1846.6408      2429.5355     -19334.526      51.227085      29.575971      46.920524      71088.853      4.4736467    
     86000   86                  4000   302.82712     -459.847       -1809.5746     -1993.5811      2423.6147     -19335.902      51.227139      29.576002      46.920573      71089.077      4.4736326    
     87000   87                  4000   306.52388     -658.04345     -1718.3639     -2268.7713      2013.0049     -19333.402      51.232397      29.579038      46.92539       71110.972      4.4722552    
     88000   88                  4000   293.30199      208.39938     -954.14492     -1397.3934      2976.7364     -19332.09       51.218688      29.571124      46.912833      71053.904      4.4758472    
     89000   89                  4000   301.58509      804.43348     -422.967       -666.46983      3502.7373     -19330.003      51.211258      29.566834      46.906028      71022.985      4.4777957    
     90000   90                  4000   300.72875      816.99115     -556.48234     -525.5707       3533.0265     -19332.989      51.209632      29.565895      46.904538      71016.22       4.4782222    
     91000   91                  4000   300.38583      590.56989     -715.49062     -766.47143      3253.6717     -19334.49       51.213111      29.567903      46.907724      71030.692      4.4773098    
     92000   92                  4000   306.88116      249.8478      -1206.5556     -873.18075      2829.2798     -19331.5        51.220292      29.57205       46.914302      71060.579      4.4754267    
     93000   93                  4000   299.62048     -115.52318     -1639.5216     -1400.1958      2693.1479     -19335.363      51.221472      29.572731      46.915383      71065.489      4.4751175    
     94000   94                  4000   303.32856     -164.52419     -1528.0321     -1626.4763      2660.9358     -19330.744      51.226227      29.575476      46.919738      71085.281      4.4738715    
     95000   95                  4000   293.61796     -241.2341      -1653.8328     -1737.2265      2667.3571     -19331.649      51.224945      29.574736      46.918564      71079.947      4.4742072    
     96000   96                  4000   305.90418     -601.62656     -2043.9563     -1892.6234      2131.7001     -19331.668      51.232951      29.579358      46.925897      71113.279      4.4721101    
     97000   97                  4000   300.53011     -407.52214     -1960.1445     -1706.0517      2443.6298     -19332.218      51.228343      29.576698      46.921677      71094.093      4.473317     
     98000   98                  4000   299.39357      441.59192     -1034.7833     -1081.2655      3440.8246     -19333.858      51.215294      29.569164      46.909724      71039.777      4.4767372    
     99000   99                  4000   300.516        928.47538     -471.64049     -494.96137      3752.028      -19334.118      51.206063      29.563834      46.901269      71001.37       4.4791588    
    100000   100                 4000   302.55403      558.76753     -844.02799     -680.98414      3201.3147     -19335.137      51.211883      29.567194      46.9066        71025.584      4.4776318    
Loop time of 969.53 on 1 procs for 100000 steps with 4000 atoms

Performance: 8.912 ns/day, 2.693 hours/ns, 103.143 timesteps/s, 412.571 katom-step/s
95.0% CPU use with 1 MPI tasks x 1 OpenMP threads

MPI task timing breakdown:
Section |  min time  |  avg time  |  max time  |%varavg| %total
---------------------------------------------------------------
Pair    | 880.22     | 880.22     | 880.22     |   0.0 | 90.79
Neigh   | 0          | 0          | 0          |   0.0 |  0.00
Comm    | 15.97      | 15.97      | 15.97      |   0.0 |  1.65
Output  | 0.020756   | 0.020756   | 0.020756   |   0.0 |  0.00
Modify  | 64.386     | 64.386     | 64.386     |   0.0 |  6.64
Other   |            | 8.936      |            |       |  0.92

Nlocal:           4000 ave        4000 max        4000 min
Histogram: 1 0 0 0 0 0 0 0 0 0
Nghost:           5063 ave        5063 max        5063 min
Histogram: 1 0 0 0 0 0 0 0 0 0
Neighs:         136000 ave      136000 max      136000 min
Histogram: 1 0 0 0 0 0 0 0 0 0
FullNghs:       272000 ave      272000 max      272000 min
Histogram: 1 0 0 0 0 0 0 0 0 0

Total # of neighbors = 272000
Ave neighs/atom = 68
Neighbor list builds = 0
Dangerous builds = 0
System init for write_data ...
System init for write_restart ...
WARNING: No fixes with time integration, atoms won't move
For more information see https://docs.lammps.org/err0028 (src/verlet.cpp:60)
Setting up Verlet run ...
  Unit style    : metal
  Current step  : 0
  Time step     : 0.001
Per MPI rank memory allocation (min/avg/max) = 12.77 | 12.77 | 12.77 Mbytes
   Step          Time         Atoms         Temp          Press           Pxx            Pyy            Pzz           PotEng           Lx             Ly             Lz           Volume        Density    
         0   0                   4000   302.55403      558.76753     -844.02799     -680.98414      3201.3147     -19335.137      51.211883      29.567194      46.9066        71025.584      4.4776318    
Loop time of 8.7001e-05 on 1 procs for 0 steps with 4000 atoms

WARNING: New thermo_style command, previous thermo_modify settings will be lost (src/output.cpp:912)
Setting up Verlet run ...
  Unit style    : metal
  Current step  : 0
  Time step     : 0.001
Per MPI rank memory allocation (min/avg/max) = 12.77 | 12.77 | 12.77 Mbytes
   Step          Time           Temp          Press           Pxx            Pyy            Pzz           PotEng           Lx             Ly             Lz           Volume        Density        v_strain       v_sigzz    
         0   0              302.55403      558.76753     -844.02799     -680.98414      3201.3147     -19335.137      51.211883      29.567194      46.9066        71025.584      4.4776318      4.54441e-16    0.32013147   
      1000   1              291.03741      1364.4995     -396.2489      -385.31831      4875.0657     -19335.534      51.218333      29.569923      46.859693      70970.044      4.4811359      0.001          0.48750657   
      2000   2              302.9433       2278.4431      206.60996      80.005003      6548.7142     -19335.796      51.215576      29.577782      46.812787      70914.028      4.4846756      0.002          0.65487142   
      3000   3              297.08652      3860.0748      1020.4457      1723.0862      8836.6926     -19333.028      51.227831      29.561355      46.76588       70820.571      4.4905938      0.003          0.88366926   
      4000   4              294.76727      4474.1597      1598.458       1583.7782      10240.243     -19333.81       51.228357      29.571615      46.718973      70774.819      4.4934967      0.004          1.0240243    
      5000   5              300.52964      4166.133       908.64724      446.90181      11142.85      -19333.305      51.256292      29.595504      46.672067      70799.461      4.4919327      0.005          1.114285     
      6000   6              307.88962      3130.1575     -1124.8262     -850.00589      11365.305     -19331.909      51.323203      29.620633      46.62516       70880.77       4.4867799      0.006          1.1365305    
      7000   7              299.14675      3133.6843     -1328.7944     -1885.0436      12614.891     -19332.292      51.328066      29.645187      46.578254      70874.874      4.4871532      0.007          1.2614891    
      8000   8              298.1829       4170.8634     -486.40646     -1135.6524      14134.649     -19331.262      51.329694      29.648999      46.531347      70814.848      4.4909567      0.008          1.4134649    
      9000   9              299.89274      5391.4333      154.71902     -271.38013      16290.961     -19329.31       51.321588      29.654707      46.48444       70745.908      4.495333       0.009          1.6290961    
     10000   10             299.77086      6552.5607      687.11263      1006.7619      17963.808     -19335.312      51.33215       29.638203      46.437534      70649.724      4.5014531      0.01           1.7963808    
     11000   11             300.97968      8433.6209      2801.4044      2027.1345      20472.324     -19325.83       51.318699      29.637151      46.390627      70557.363      4.5073455      0.011          2.0472324    
     12000   12             299.28403      7951.5524      1036.9291      1707.9251      21109.803     -19331.333      51.371555      29.643457      46.343721      70573.631      4.5063065      0.012          2.1109803    
     13000   13             303.13994      7642.5861      187.13093      706.41809      22034.209     -19329.82       51.405151      29.665888      46.296814      70601.691      4.5045155      0.013          2.2034209    
     14000   14             298.92988      7488.3594     -159.52343     -268.3046       22892.906     -19328.577      51.433782      29.686004      46.249907      70617.294      4.5035203      0.014          2.2892906    
     15000   15             298.15512      7169.5082     -860.59826     -1397.0638      23766.187     -19326.835      51.446131      29.720405      46.203001      70644.381      4.5017935      0.015          2.3766187    
     16000   16             303.71418      7222.7864     -1605.8168     -1502.5647      24776.741     -19326.367      51.479088      29.731578      46.156094      70644.419      4.5017911      0.016          2.4776741    
     17000   17             303.19681      8217.5451     -628.37022     -1150.7267      26431.732     -19329.688      51.464838      29.740271      46.109188      70573.718      4.506301       0.017          2.6431732    
     18000   18             304.24954      8985.1973     -214.47767     -1007.3814      28177.451     -19322.581      51.488209      29.74647       46.062281      70548.642      4.5079027      0.018          2.8177451    
     19000   19             300.74683      9983.2835      724.9352      -636.20474      29861.12      -19325.459      51.470144      29.757194      46.015374      70477.474      4.5124548      0.019          2.986112     
     20000   20             299.91596      11335.128      937.13488      994.66765      32073.582     -19322.164      51.502941      29.738196      45.968468      70405.515      4.5170668      0.02           3.2073582    
     21000   21             291.75942      11641.783      520.11999      1234.038       33171.19      -19327.738      51.54265       29.72806       45.921561      70363.909      4.5197377      0.021          3.317119     
     22000   22             308.76883      11999.17       143.05357      1325.0758      34529.381     -19321.147      51.572952      29.743547      45.874655      70370          4.5193465      0.022          3.4529381    
     23000   23             299.54152      12950.572      1124.1557      1448.2448      36279.314     -19318.569      51.563635      29.755629      45.827748      70313.899      4.5229523      0.023          3.6279314    
     24000   24             306.77826      13323.212      145.38057      2096.9684      37727.286     -19319.263      51.60977       29.749612      45.780841      70290.561      4.5244541      0.024          3.7727286    
     25000   25             303.35366      13260.743      348.27477      763.95205      38670.003     -19317.202      51.616846      29.780951      45.733935      70302.149      4.5237083      0.025          3.8670003    
     26000   26             298.53656      13088.526     -264.07368      102.99828      39426.652     -19316.91       51.635838      29.805663      45.687028      70314.182      4.5229341      0.026          3.9426652    
     27000   27             300.50885      13144.397     -503.03503     -508.35869      40444.585     -19313.393      51.659018      29.826189      45.640122      70321.916      4.5224367      0.027          4.0444585    
     28000   28             286.72465      13411.072     -518.45904     -933.90182      41685.576     -19308.832      51.674176      29.844122      45.593215      70312.506      4.5230419      0.028          4.1685576    
     29000   29             299.57814      13080.827     -1383.3727     -1762.5852      42388.438     -19306.117      51.715237      29.867164      45.546308      70350.257      4.5206148      0.029          4.2388438    
     30000   30             290.99037      13476.801     -1378.6136     -1917.7379      43726.755     -19309.433      51.721466      29.879661      45.499402      70315.68       4.5228378      0.03           4.3726755    
     31000   31             302.75859      14497.124     -913.65373     -1189.1919      45594.217     -19304.735      51.745609      29.877879      45.452495      70271.787      4.5256628      0.031          4.5594217    
     32000   32             298.06135      15225.783     -519.84129     -894.15138      47091.342     -19301.918      51.752175      29.888688      45.405589      70233.573      4.5281252      0.032          4.7091342    
     33000   33             300.90455      15865.324     -345.37281     -659.79717      48601.143     -19303.034      51.753884      29.898469      45.358682      70186.297      4.5311753      0.033          4.8601143    
     34000   34             300.51684      16596.292     -62.69548      -486.62658      50338.197     -19298.397      51.769263      29.907438      45.311775      70155.589      4.5331586      0.034          5.0338197    
     35000   35             298.43786      17426.667      75.533427      223.57773      51980.89      -19297.784      51.799854      29.89884       45.264869      70104.217      4.5364805      0.035          5.198089     
     36000   36             303.21535      18099.001      168.35309      654.98232      53473.669     -19294.286      51.809225      29.912679      45.217962      70076.659      4.5382645      0.036          5.3473669    
     37000   37             302.14204      18727.32       740.49153      397.77024      55043.699     -19295.26       51.820984      29.921475      45.171056      70040.444      4.540611       0.037          5.5043699    
     38000   38             297.65634      19654.753      1569.8579      602.42952      56791.972     -19290.971      51.79802       29.943299      45.124149      69987.718      4.5440318      0.038          5.6791972    
     39000   39             304.92292      20310.937      2122.7593      437.80001      58372.253     -19284.281      51.81537       29.957405      45.077242      69971.331      4.545096       0.039          5.8372253    
     40000   40             297.58497      20562.401      1530.1055      621.3952       59535.702     -19285.126      51.835593      29.967762      45.030336      69949.975      4.5464836      0.04           5.9535702    
     41000   41             309.86203      20776.383      924.47814      660.34783      60744.322     -19278.513      51.897169      29.971343      44.983429      69968.479      4.5452812      0.041          6.0744322    
     42000   42             303.63867      21099.262      1413.5278     -26.382125      61910.64      -19282.704      51.887359      29.992488      44.936523      69931.609      4.5476776      0.042          6.191064     
     43000   43             306.65882      21774.732      1563.329       245.50952      63515.358     -19273.4        51.896486      30.01378       44.889616      69920.502      4.5484001      0.043          6.3515358    
     44000   44             300.67695      22590.076      2494.2986      157.78842      65118.142     -19276.372      51.878337      30.028456      44.842709      69857.155      4.5525246      0.044          6.5118142    
     45000   45             295.32454      22303.535      1268.967       7.4308951      65634.207     -19275.941      51.952045      30.02674       44.795803      69879.238      4.5510859      0.045          6.5634207    
     46000   46             301.17488      22745.14       601.36601      367.05527      67266.998     -19268.376      52.006375      30.02558       44.748896      69876.366      4.551273       0.046          6.7266998    
     47000   47             295.16744      23444.782      616.6611       976.0616       68741.622     -19268.772      52.022087      30.028726      44.70199       69831.527      4.5541954      0.047          6.8741622    
     48000   48             300.39864      23991.043      540.97407      1352.4373      70079.716     -19259.869      52.065432      30.033199      44.655083      69826.774      4.5545053      0.048          7.0079716    
     49000   49             302.29046      24337.253      201.89533      1452.53        71357.334     -19261.667      52.093041      30.038041      44.608176      69801.665      4.5561437      0.049          7.1357334    
     50000   50             298.97085      24814.113      428.66282      1207.9653      72805.712     -19252.697      52.120586      30.052379      44.56127       69798.439      4.5563542      0.05           7.2805712    
     51000   51             301.11478      24912.79       260.89336      565.47312      73912.005     -19252.225      52.129807      30.077689      44.514363      69796.034      4.5565112      0.051          7.3912005    
     52000   52             297.70741      25148.529      149.31856      306.72571      74989.542     -19248.245      52.147879      30.09716       44.467457      69791.809      4.5567871      0.052          7.4989542    
     53000   53             302.38779      25229.48      -534.67689      177.92841      76045.188     -19243.643      52.184503      30.112575      44.42055       69802.887      4.5560639      0.053          7.6045188    
     54000   54             301.74814      25626.923     -370.82729      35.042719      77216.554     -19244.608      52.190267      30.130298      44.373643      69777.922      4.557694       0.054          7.7216554    
     55000   55             301.36822      26140.518     -401.41482      23.470953      78799.497     -19238.56       52.213923      30.142153      44.326737      69763.194      4.5586562      0.055          7.8799497    
     56000   56             302.13983      26968.399     -268.85947      788.45868      80385.597     -19234.433      52.240965      30.139806      44.27983       69720.035      4.5614781      0.056          8.0385597    
     57000   57             298.4028       27647.379      523.86056      433.94532      81984.33      -19233.261      52.221807      30.168531      44.232924      69686.99       4.5636411      0.057          8.198433     
     58000   58             303.56355      28079.065      573.94445      489.25359      83173.997     -19225.998      52.268856      30.171365      44.186017      69682.353      4.5639448      0.058          8.3173997    
     59000   59             301.16657      29624.219      1508.7454      1947.045       85416.865     -19225.146      52.276345      30.158088      44.13911       69587.717      4.5701516      0.059          8.5416865    
     60000   60             292.30271      29722.115      1096.241       1689.3361      86380.767     -19222.56       52.312768      30.168583      44.092204      69586.407      4.5702376      0.06           8.6380767    
     61000   61             304.63921      29606.244      824.05028      884.63775      87110.043     -19217.826      52.313084      30.212016      44.045297      69612.875      4.5684999      0.061          8.7110043    
     62000   62             300.1575       30607.146      1509.9285      1188.0527      89123.457     -19212.222      52.321006      30.218729      43.998391      69564.724      4.5716621      0.062          8.9123457    
     63000   63             309.50122      31565.501      2199.2913      1702.6973      90794.514     -19209.961      52.322285      30.229872      43.951484      69517.887      4.5747423      0.063          9.0794514    
     64000   64             297.72916      32099.073      2701.9056      1587.9577      92007.355     -19205.363      52.334083      30.245509      43.904577      69495.283      4.5762302      0.064          9.2007355    
     65000   65             303.57619      30931.223      628.51696      153.43001      92011.722     -19197.24       52.416383      30.271353      43.857671      69589.617      4.5700268      0.065          9.2011722    
     66000   66             299.48685      31226.609      67.605285      475.78529      93136.437     -19198.985      52.445207      30.276885      43.810764      69566.126      4.57157        0.066          9.3136437    
     67000   67             294.44238      31291.649      587.45086     -765.99569      94053.493     -19194.951      52.425371      30.322719      43.763858      69570.521      4.5712812      0.067          9.4053493    
     68000   68             300.5852       31348.078      10.945089     -928.06975      94961.359     -19187.679      52.477147      30.335788      43.716951      69594.572      4.5697014      0.068          9.4961359    
     69000   69             300.4906       31595.032     -231.56864     -884.80766      95901.472     -19186.853      52.514902      30.341036      43.670044      69581.95       4.5705303      0.069          9.5901472    
     70000   70             300.60782      32193.641     -118.54631     -818.02613      97517.496     -19177.678      52.532743      30.359747      43.623138      69573.704      4.5710721      0.07           9.7517496    
     71000   71             292.95024      31739.869     -170.24932     -2291.1482      97681.005     -19174.281      52.519417      30.416419      43.576231      69610.962      4.5686255      0.071          9.7681005    
     72000   72             299.67391      32390.247     -341.88729     -1865.0124      99377.639     -19168.717      52.573522      30.407067      43.529325      69586.266      4.5702468      0.072          9.9377639    
     73000   73             296.10436      33409.464     -107.6863      -833.20758      101169.28     -19167.843      52.600277      30.398625      43.482418      69527.347      4.5741198      0.073          10.116928    
     74000   74             303.84381      33973.675      893.45399     -1505.5301      102533.1      -19160.692      52.573757      30.441839      43.435511      69516.01       4.5748658      0.074          10.25331     
     75000   75             299.24382      34773.898      768.14818     -695.67626      104249.22     -19158.503      52.624677      30.425551      43.388605      69471.006      4.5778294      0.075          10.424922    
     76000   76             300.91843      35199.77       76.815001      15.539882      105506.95     -19150.318      52.674868      30.427586      43.341698      69466.733      4.578111       0.076          10.550695    
     77000   77             296.72385      35755.487      66.708983      221.64213      106978.11     -19145.179      52.708093      30.431868      43.294792      69445.094      4.5795376      0.077          10.697811    
     78000   78             304.11643      36158.548     -167.0901       778.40143      107864.33     -19141.609      52.756499      30.432563      43.247885      69435.149      4.5801935      0.078          10.786433    
     79000   79             298.92746      36326.961     -1140.5841      1304.6312      108816.83     -19137.261      52.857443      30.408471      43.200978      69437.539      4.5800358      0.079          10.881683    
     80000   80             306.44806      36268.36      -1178.9008      341.31667      109642.67     -19132.116      52.861181      30.449638      43.154072      69460.958      4.5784916      0.08           10.964267    
     81000   81             300.76223      36753.298     -962.16634      454.71762      110767.34     -19127.662      52.859602      30.473645      43.107165      69438.09       4.5799995      0.081          11.076734    
     82000   82             303.04708      37037.869     -297.16947     -385.84005      111796.62     -19121.589      52.858152      30.50794       43.060259      69438.685      4.5799602      0.082          11.179662    
     83000   83             288.97045      37130.826     -1488.9095      92.716554      112788.67     -19115.092      52.91489       30.511875      43.013352      69446.455      4.5794478      0.083          11.278867    
     84000   84             303.18936      37608.612      7.3233173     -1108.0844      113926.6      -19110.29       52.862718      30.57015       42.966445      69434.688      4.5802239      0.084          11.39266     
     85000   85             308.58614      38377.247      696.29988     -1020.3199      115455.76     -19109.014      52.869019      30.582655      42.919539      69395.529      4.5828084      0.085          11.545576    
     86000   86             299.08122      39208.018      780.22268     -308.74342      117152.57     -19098.063      52.898124      30.587871      42.872632      69369.678      4.5845162      0.086          11.715257    
     87000   87             298.34565      39714.482      972.12909     -279.61174      118450.93     -19098.023      52.915406      30.598559      42.825726      69340.639      4.5864362      0.087          11.845093    
     88000   88             299.99986      40521.693      2243.3145     -547.66055      119869.42     -19087.072      52.901592      30.632992      42.778819      69324.532      4.5875018      0.088          11.986942    
     89000   89             298.48882      40092.002      26.300175      138.577        120111.13     -19082.149      53.01867       30.614562      42.731912      69360.019      4.5851547      0.089          12.011113    
     90000   90             295.04504      40157.002      112.32105     -605.65269      120964.34     -19076.581      53.039087      30.640312      42.685006      69368.861      4.5845702      0.09           12.096434    
     91000   91             302.80665      39983.318     -1316.29       -129.97622      121396.22     -19065.869      53.135499      30.639428      42.638099      69416.586      4.5814182      0.091          12.139622    
     92000   92             298.29667      40593.943     -1264.2611      163.9277       122882.16     -19068.449      53.168398      30.633193      42.591193      69369.034      4.5845588      0.092          12.288216    
     93000   93             300.0185       42369.278      421.43566      1445.8168      125240.58     -19058.577      53.138754      30.646847      42.544286      69284.871      4.5901279      0.093          12.524058    
     94000   94             300.17976      43153.857      981.66336      1588.8907      126891.02     -19054.015      53.124817      30.675094      42.497379      69254.101      4.5921673      0.094          12.689102    
     95000   95             306.97056      42352.964      543.36078     -153.08184      126668.61     -19045.424      53.164502      30.717953      42.450473      69326.066      4.5874002      0.095          12.666861    
     96000   96             295.57756      42523.179     -106.03815      83.372404      127592.2      -19038.412      53.216071      30.72496       42.403566      69332.444      4.5869783      0.096          12.75922     
     97000   97             298.19905      42529.428     -314.44996     -389.07231      128291.81     -19040.111      53.237345      30.744474      42.35666       69327.44       4.5873094      0.097          12.829181    
     98000   98             299.97706      43833.937      295.03301      583.63001      130623.15     -19026.338      53.265459      30.744652      42.309753      69287.636      4.5899447      0.098          13.062315    
     99000   99             302.89604      45146.473      906.64899      2070.7412      132462.03     -19026.528      53.291509      30.72782       42.262846      69206.758      4.5953087      0.099          13.246203    
    100000   100            301.86358      44252.23      -391.59278      979.05114      132169.23     -19016.164      53.364906      30.758152      42.21594       69293.493      4.5895567      0.1            13.216923    
    101000   101            300.30143      43748.049     -921.75291     -54.384304      132220.28     -19007.581      53.404311      30.793496      42.169033      69347.204      4.586002       0.101          13.222028    
    102000   102            297.16536      44364.189     -32.773408     -406.87065      133532.21     -19003.114      53.373352      30.832985      42.122127      69318.688      4.5878885      0.102          13.353221    
    103000   103            307.33276      45169.668     -112.48295      494.09338      135127.4      -18997.354      53.430183      30.823302      42.07522       69293.457      4.5895591      0.103          13.51274     
    104000   104            306.51026      45855.076      1492.7721     -396.98334      136469.44     -18994.764      53.349084      30.88754       42.028313      69255.179      4.5920957      0.104          13.646944    
    105000   105            302.47903      46097.21       1375.6719     -383.77511      137299.73     -18984.488      53.39814       30.899688      41.981407      69268.728      4.5911976      0.105          13.729973    
    106000   106            296.97854      45585.897     -98.231242     -452.65736      137308.58     -18978.589      53.510669      30.890221      41.9345        69315.902      4.588073       0.106          13.730858    
    107000   107            306.03752      46017.712     -1081.7063      901.571        138233.27     -18971.316      53.580246      30.880858      41.887594      69307.378      4.5886372      0.107          13.823327    
    108000   108            298.57625      46458.238     -1252.6493      1180.1383      139447.23     -18966.685      53.633549      30.877396      41.840687      69290.87       4.5897304      0.108          13.944723    
    109000   109            305.25992      46915.177     -90.475574      136.09324      140699.91     -18956.437      53.592638      30.939154      41.79378       69298.722      4.5892104      0.109          14.069991    
    110000   110            303.5331       47336.128      999.74218     -647.9345       141656.58     -18951.756      53.546014      30.993568      41.746874      69282.362      4.5902941      0.11           14.165658    
    111000   111            299.6633       47464.915      980.74327     -728.50987      142142.51     -18943.717      53.58898       31.00894       41.699967      69294.398      4.5894967      0.111          14.214251    
    112000   112            308.54615      47516.632     -439.08336      103.16287      142885.82     -18938.785      53.711503      30.979367      41.653061      69308.543      4.5885601      0.112          14.288582    
    113000   113            295.75947      47473.343     -1706.7882      869.79548      143257.02     -18932.381      53.788683      30.975947      41.606154      69322.318      4.5876483      0.113          14.325702    
    114000   114            308.26807      48528.104     -477.87816      1046.8327      145015.36     -18922.792      53.794828      30.992087      41.559247      69288.158      4.58991        0.114          14.501536    
    115000   115            296.50617      48877.532      710.45483     -41.928116      145964.07     -18916.332      53.750752      31.048158      41.512341      69278.363      4.590559       0.115          14.596407    
    116000   116            302.69644      48725.193      377.77801     -492.93546      146290.74     -18908.973      53.752331      31.095697      41.465434      69308.072      4.5885912      0.116          14.629074    
    117000   117            297.16957      49121.051      74.208266      24.397919      147264.55     -18902.891      53.845075      31.073955      41.418528      69300.628      4.5890842      0.117          14.726455    
    118000   118            306.553        49360.548     -866.89066      748.46673      148200.07     -18896.209      53.942583      31.057713      41.371621      69311.253      4.5883807      0.118          14.820007    
    119000   119            300.90502      49528.348     -281.85636      114.54135      148752.36     -18884.512      53.912129      31.117887      41.324714      69327.645      4.5872958      0.119          14.875236    
    120000   120            301.50098      49692.214     -181.58823     -240.22335      149498.45     -18883.157      53.892859      31.161061      41.277808      69320.245      4.5877855      0.12           14.949845    
    121000   121            305.16492      49735.905     -829.76624      62.724602      149974.76     -18870.933      53.985716      31.154852      41.230901      69346.954      4.5860185      0.121          14.997476    
    122000   122            298.18619      50402.687     -1373.9131      1217.8624      151364.11     -18866.032      54.080488      31.121634      41.183995      69315.675      4.588088       0.122          15.136411    
    123000   123            297.52494      50957.771     -937.81017      1345.324       152465.8      -18853.983      54.076501      31.158771      41.137088      69314.237      4.5881831      0.123          15.24658     
    124000   124            299.91942      51124.431      397.69913     -67.615419      153043.21     -18853.317      54.025666      31.220039      41.090181      69306.126      4.5887201      0.124          15.304321    
    125000   125            302.91622      51110.19       95.660312     -116.46881      153351.38     -18844.353      54.076923      31.239421      41.043275      69335.708      4.5867623      0.125          15.335138    
    126000   126            300.92186      51340.787     -325.42354      165.82775      154181.96     -18833.773      54.142861      31.242674      40.996368      69348.135      4.5859404      0.126          15.418196    
    127000   127            299.14816      51410.304     -422.24095     -43.200636      154696.35     -18827.039      54.176055      31.262635      40.949462      69355.539      4.5854508      0.127          15.469635    
    128000   128            302.28607      52983.616      1221.3255      847.65546      156881.87     -18818.179      54.13628       31.291086      40.902555      69288.232      4.5899052      0.128          15.688187    
    129000   129            297.41056      51646.733     -889.17735      57.354677      155772.02     -18812.653      54.250151      31.30364       40.855648      69382.172      4.5836906      0.129          15.577202    
    130000   130            298.07127      50649.329     -1535.201      -1428.2301      154911.42     -18801.585      54.279984      31.362582      40.808742      69471.188      4.5778174      0.13           15.491142    
    131000   131            307.51735      53669.194      890.20458      1330.5177      158786.86     -18795.383      54.259723      31.334695      40.761835      69303.758      4.5888769      0.131          15.878686    
    132000   132            301.06881      52632.583     -509.8526       275.32913      158132.27     -18791.239      54.345328      31.353985      40.714929      69375.901      4.584105       0.132          15.813227    
    133000   133            298.51308      52467.264     -131.95423     -715.77775      158249.52     -18777.936      54.346062      31.407974      40.668022      69416.235      4.5814414      0.133          15.824952    
    134000   134            304.84153      53566.937      1012.3335     -226.05454      159914.53     -18769.096      54.345985      31.427631      40.621115      69379.467      4.5838693      0.134          15.991453    
    135000   135            304.25201      53466.484     -275.11483      329.71687      160344.85     -18759.695      54.458581      31.413343      40.574209      69411.358      4.5817633      0.135          16.034485    
    136000   136            301.23983      52933.494     -986.43153     -90.663707      159877.58     -18753.057      54.538599      31.426774      40.527302      69462.67       4.5783788      0.136          15.987758    
    137000   137            304.95088      53870.665      979.77772     -614.8425       161247.06     -18745.168      54.457068      31.49173       40.480396      69421.744      4.5810779      0.137          16.124706    
    138000   138            299.95655      54645.354      1595.468      -100.69702      162441.29     -18739.269      54.459135      31.509272      40.433489      69382.561      4.5836649      0.138          16.244129    
    139000   139            299.4494       53514.616     -356.40613     -357.61234      161257.87     -18726.681      54.593564      31.517647      40.386582      69491.605      4.5764724      0.139          16.125787    
    140000   140            303.09756      54229.956     -752.06534      768.3486       162673.59     -18723.587      54.63555       31.511063      40.339676      69449.765      4.5792295      0.14           16.267359    
    141000   141            297.52115      54645.006     -215.59048      472.67676      163677.93     -18716.711      54.653721      31.53389       40.292769      69442.349      4.5797186      0.141          16.367793    
    142000   142            297.92395      54686.692     -211.44723      583.13207      163688.39     -18702.713      54.708187      31.554477      40.245863      69475.959      4.5775031      0.142          16.368839    
    143000   143            293.32823      52768.282     -1173.1231     -2139.3193      161617.29     -18694.356      54.72961       31.64204       40.198956      69614.805      4.5683733      0.143          16.161729    
    144000   144            294.59449      56256.23       1388.5063      1032.843       166347.34     -18686.368      54.725277      31.589951      40.152049      69413.611      4.5816146      0.144          16.634734    
    145000   145            296.79074      54500.466     -1098.3008      124.904        164474.79     -18677.335      54.852586      31.614926      40.105143      69548.754      4.5727119      0.145          16.447479    
    146000   146            302.08122      55190.15      -465.27943      675.95813      165359.77     -18671.786      54.852704      31.640638      40.058236      69524.054      4.5743364      0.146          16.535977    
    147000   147            297.27131      55717.468      655.50806      578.46148      165918.43     -18662.229      54.865649      31.664949      40.01133       69512.402      4.5751032      0.147          16.591843    
    148000   148            302.72757      53889.559     -1251.9147     -1132.5356      164053.13     -18650.617      54.977706      31.703346      39.964423      69657.08       4.5656007      0.148          16.405313    
    149000   149            303.88744      56415.23       405.21356      1731.7152      167108.76     -18646.987      54.954691      31.687683      39.917516      69511.838      4.5751403      0.149          16.710876    
    150000   150            302.39151      55060.957     -337.94303     -213.69687      165734.51     -18635.525      54.98448       31.757774      39.87061       69621.449      4.5679373      0.15           16.573451    
    151000   151            295.85016      54826.867     -189.67491     -1032.9037      165703.18     -18630.233      55.009476      31.793029      39.823703      69648.387      4.5661706      0.151          16.570318    
    152000   152            301.28899      55900.648      473.25602      774.49879      166454.19     -18620.907      55.024622      31.800573      39.776797      69602.016      4.5692127      0.152          16.645419    
    153000   153            296.06404      55740.043      1202.7134      48.870885      165968.54     -18606.543      55.093734      31.818408      39.72989       69646.294      4.5663078      0.153          16.596854    
    154000   154            296.26604      53447.196     -1687.7697     -901.59265      162930.95     -18600.939      55.182809      31.878034      39.682983      69807.109      4.5557884      0.154          16.293095    
    155000   155            303.09917      55328.071      584.02598      1559.2727      163840.92     -18589.233      55.233787      31.846066      39.636077      69719.019      4.5615446      0.155          16.384092    
    156000   156            295.99043      53818.098      198.97444     -473.98976      161729.31     -18581.857      55.257692      31.919801      39.58917       69827.955      4.5544283      0.156          16.172931    
    157000   157            295.40925      51772.298     -64.16347       1088.9916      154292.07     -18573.325      55.385455      31.959482      39.542264      69993.384      4.5436639      0.157          15.429207    
    158000   158            334.86442      41423.035      800.41064     -1117.8393      124586.53     -18626.543      55.32708       32.370113      39.495357      70733.966      4.4960919      0.158          12.458653    
    159000   159            337.39109      23183.404      557.20852      1552.7038      67440.299     -18879.878      52.995553      33.988895      39.44845       71056.928      4.4756566      0.159          6.7440299    
    160000   160            305.6884       12579.469     -410.80161      96.342907      38052.866     -18974.605      52.260048      34.652835      39.401544      71354.574      4.4569871      0.16           3.8052866    
    161000   161            300.109        8118.7885     -726.42587     -126.10084      25208.892     -19031.542      52.138671      34.828219      39.354637      71463.97       4.4501644      0.161          2.5208892    
    162000   162            305.06598      7472.9837      396.24007      95.661017      21927.05      -19062.358      52.046379      34.890623      39.307731      71380.11       4.4553926      0.162          2.192705     
    163000   163            301.60399      6743.1007     -557.54561     -380.75289      21167.601     -19079.101      52.097076      34.887911      39.260824      71358.831      4.4567212      0.163          2.1167601    
    164000   164            301.62231      7346.2569     -489.78467     -178.68852      22707.244     -19090.269      52.061221      34.904782      39.213917      71258.965      4.462967       0.164          2.2707244    
    165000   165            300.78205      8076.8233     -268.59711      304.22849      24194.838     -19097.954      52.082362      34.88872       39.167011      71169.864      4.4685544      0.165          2.4194838    
    166000   166            298.70123      8474.2904     -1192.5646      377.99319      26237.443     -19101.386      52.16697       34.85148       39.120104      71124.109      4.4714292      0.166          2.6237443    
    167000   167            295.34192      9411.283       399.59963      156.3011       27677.948     -19109.517      51.99974       34.963939      39.073198      71039.596      4.4767486      0.167          2.7677948    
    168000   168            302.82243      9984.6334     -635.50583      1447.9116      29141.494     -19109.414      52.096012      34.920817      39.026291      70998.007      4.479371       0.168          2.9141494    
    169000   169            301.39374      10459.633      135.57081      1279.2164      29964.113     -19117.171      52.091005      34.935486      38.979384      70935.641      4.4833092      0.169          2.9964113    
    170000   170            301.14487      11016.394      703.69469      613.5518       31731.937     -19120.833      52.097228      34.95446       38.932478      70897.228      4.4857383      0.17           3.1731937    
    171000   171            299.36383      11887.438      852.74495      711.2265       34098.344     -19116.005      52.033903      35.011359      38.885571      70840.864      4.4893074      0.171          3.4098344    
    172000   172            296.85984      11254.784     -1486.706       600.53783      34650.52      -19119.244      52.154097      34.998583      38.838665      70892.971      4.4860077      0.172          3.465052     
    173000   173            297.01375      11128.2       -139.79618     -2002.9988      35527.396     -19119.901      52.09757       35.076398      38.791758      70887.869      4.4863306      0.173          3.5527396    
    174000   174            301.03447      10826.043     -2047.3054     -2152.5238      36677.958     -19127.512      52.168531      35.069149      38.744851      70883.937      4.4865795      0.174          3.6677958    
    175000   175            304.58452      12266.486     -1018.5666     -203.29076      38021.314     -19124.191      52.161211      35.075382      38.697945      70800.769      4.4918497      0.175          3.8021314    
    176000   176            301.16728      14560.744      1026.2554      720.06823      41935.909     -19127.006      52.151932      35.039619      38.651038      70630.283      4.5026921      0.176          4.1935909    
    177000   177            300.36972      12994.961     -2161.6846     -14.365702      41160.932     -19124.973      52.271172      35.049785      38.604132      70726.372      4.4965747      0.177          4.1160932    
    178000   178            296.85762      14897.137     -52.939184      736.80772      44007.543     -19126.591      52.253305      35.046127      38.557225      70608.919      4.5040545      0.178          4.4007543    
    179000   179            297.94712      15045.767      652.50579     -579.30196      45064.096     -19122.281      52.228219      35.114098      38.510318      70625.876      4.502973       0.179          4.5064096    
    180000   180            303.40913      14961.636     -225.75648     -955.90428      46066.57      -19119.16       52.229498      35.16136       38.463412      70636.523      4.5022943      0.18           4.606657     
    181000   181            294.63403      16477.326      1889.7619     -454.0002       47996.218     -19117.587      52.205216      35.166804      38.416505      70528.501      4.50919        0.181          4.7996218    
    182000   182            301.26215      18827.613      2068.2943      3111.3049      51303.239     -19124.061      52.296555      35.066588      38.369599      70364.539      4.5196972      0.182          5.1303239    
    183000   183            301.40908      17315.012      748.07292      724.69771      50472.265     -19117.196      52.312716      35.163246      38.322692      70494.014      4.511396       0.183          5.0472265    
    184000   184            298.51876      17894.652      1665.1128      235.0367       51783.806     -19118.579      52.255384      35.226676      38.275785      70457.435      4.5137382      0.184          5.1783806    
    185000   185            307.39955      18371.555      1188.7096      269.47033      53656.486     -19112.589      52.306053      35.225911      38.228879      70437.795      4.5149967      0.185          5.3656486    
    186000   186            297.65996      17452.546     -1459.9618      54.924479      53762.676     -19111.959      52.395225      35.232798      38.181972      70485.081      4.5119678      0.186          5.3762676    
    187000   187            295.11035      17588.344     -1688.5208     -252.56815      54706.121     -19110.969      52.468781      35.226966      38.135066      70485.651      4.5119313      0.187          5.4706121    
    188000   188            301.13049      18343.366     -26.772602     -503.78177      55560.653     -19104.368      52.408659      35.290316      38.088159      70444.74       4.5145516      0.188          5.5560653    
    189000   189            296.81473      18518.678     -926.56924     -680.87887      57163.483     -19105.79       52.479783      35.281829      38.041252      70436.525      4.5150781      0.189          5.7163483    
    190000   190            299.84818      19974.099      656.33139      289.80552      58976.159     -19104.641      52.41331       35.321265      37.994346      70339.1        4.5213319      0.19           5.8976159    
    191000   191            297.55112      22197.038      2354.9965      2563.8241      61672.294     -19104.207      52.3843        35.31567       37.947439      70202.256      4.5301452      0.191          6.1672294    
    192000   192            307.33144      21183.708      633.96018      824.26677      62092.896     -19100.488      52.470925      35.345068      37.900533      70289.888      4.5244974      0.192          6.2092896    
    193000   193            301.89222      20703.382     -1008.6237      682.11212      62436.658     -19100.31       52.55363       35.344928      37.853626      70313.271      4.5229927      0.193          6.2436658    
    194000   194            305.19273      21392.671      270.75396      238.823        63668.436     -19093.956      52.552928      35.376699      37.806719      70288.328      4.5245978      0.194          6.3668436    
    195000   195            296.79812      23784.671      821.55073      3269.7492      67262.713     -19091.991      52.63349       35.300065      37.759813      70156.435      4.533104       0.195          6.7262713    
    196000   196            300.26515      22248.451     -293.52134      687.94465      66350.93      -19085.692      52.63251       35.399002      37.712906      70264.36       4.5261412      0.196          6.635093     
    197000   197            300.6862       21603.337     -920.66316     -1102.7179      66833.393     -19082.429      52.664863      35.454456      37.666         70330.108      4.52191        0.197          6.6833393    
    198000   198            297.07155      21197.789     -2802.9787     -1190.6676      67587.015     -19077.228      52.756283      35.456377      37.619093      70368.268      4.5194577      0.198          6.7587015    
    199000   199            298.38246      21967.983     -1317.5128     -1351.753       68573.214     -19075.942      52.75869       35.47557       37.572186      70321.781      4.5224454      0.199          6.8573214    
    200000   200            294.95977      23124.558     -796.71835     -393.18386      70563.576     -19068.604      52.690356      35.536474      37.52528       70263.44       4.5262004      0.2            7.0563576    
    201000   201            297.52189      23719.276     -497.25593      286.01039      71369.074     -19067.907      52.77717       35.509773      37.478373      70238.419      4.5278128      0.201          7.1369074    
    202000   202            301.75012      23563.509     -1534.6056      1484.2689      70740.864     -19063.489      52.775769      35.562057      37.431467      70251.935      4.5269417      0.202          7.0740864    
    203000   203            299.84874      24689.21       2357.8825      1250.5044      70459.244     -19057.006      52.630275      35.674214      37.38456       70191.144      4.5308624      0.203          7.0459244    
    204000   204            296.99628      23628.426      1373.2526     -33.068873      69545.096     -19056.416      52.625235      35.760294      37.337653      70265.503      4.5260676      0.204          6.9545096    
    205000   205            305.77347      23825.35       1148.8978      1297.783       69029.369     -19052.055      52.581912      35.834354      37.290747      70264.673      4.526121       0.205          6.9029369    
    206000   206            298.67111      22405.862      1582.1797      1079.4638      64555.943     -19053.36       52.513126      35.959616      37.24384       70329.475      4.5219506      0.206          6.4555943    
    207000   207            303.83584      21026.159      953.70712      692.84211      61431.927     -19055.029      52.430814      36.104125      37.196934      70412.63       4.5166104      0.207          6.1431927    
    208000   208            300.3014       20016.234      1152.3348      2096.7237      56799.643     -19057.455      52.381069      36.212009      37.150027      70467.054      4.5131221      0.208          5.6799643    
    209000   209            305.99761      17310.882      1121.8782     -258.75872      51069.527     -19064.827      52.255317      36.418829      37.10312       70610.111      4.5039784      0.209          5.1069527    
    210000   210            297.73756      16036.077      470.83006      1650.5169      45986.883     -19072.303      52.235146      36.507805      37.056214      70665.849      4.5004258      0.21           4.5986883    
    211000   211            300.18453      13963.123     -1094.0702     -282.43931      43265.877     -19071.288      52.211623      36.637604      37.009307      70795.428      4.4921886      0.211          4.3265877    
    212000   212            304.49487      14106.614      79.613121      91.465059      42148.764     -19077.538      52.249709      36.653745      36.962401      70788.45       4.4926314      0.212          4.2148764    
    213000   213            302.92525      14526.462      1387.4645      842.79732      41349.123     -19079.738      52.227266      36.688473      36.915494      70735.206      4.4960131      0.213          4.1349123    
    214000   214            293.60366      14430.433      1554.4001      751.77599      40985.124     -19079.773      52.220948      36.74218       36.868587      70740.18       4.495697       0.214          4.0985124    
    215000   215            301.13396      14391.889      1992.9686     -144.1878       41326.886     -19082.343      52.192715      36.808222      36.821681      70738.907      4.4957779      0.215          4.1326886    
    216000   216            293.66293      13455.598      721.6748      -777.13943      40422.26      -19083.842      52.220234      36.865696      36.774774      70796.414      4.4921261      0.216          4.042226     
    217000   217            298.95447      13923.476     -706.11214      136.91624      42339.625     -19077.478      52.296968      36.847456      36.727868      70774.976      4.4934867      0.217          4.2339625    
    218000   218            297.26175      13944.615     -1185.22       -393.80515      43412.869     -19078.286      52.376747      36.843817      36.680961      70785.425      4.4928234      0.218          4.3412869    
    219000   219            304.03308      14417.955     -1350.1613     -76.479616      44680.506     -19075.442      52.402807      36.863899      36.634054      70768.633      4.4938895      0.219          4.4680506    
    220000   220            305.53811      13234.292     -1141.3135     -1746.1132      42590.304     -19078.857      52.363785      36.964041      36.587148      70817.246      4.4908046      0.22           4.2590304    
    221000   221            299.10046      14792.77      -369.24089      688.34466      44059.207     -19077.106      52.346685      36.97041       36.540241      70715.54       4.4972635      0.221          4.4059207    
    222000   222            305.3584       15108.18       665.68388      479.43664      44179.421     -19083.543      52.281313      37.054534      36.493335      70697.066      4.4984386      0.222          4.4179421    
    223000   223            305.02092      14721.939      226.47357     -145.40862      44084.753     -19076.795      52.26055       37.144306      36.446428      70749.145      4.4951273      0.223          4.4084753    
    224000   224            303.17479      14855.396      2162.5029     -1416.9444      43820.63      -19081.884      52.184138      37.238815      36.399521      70734.296      4.4960709      0.224          4.382063     
    225000   225            299.37518      13995.674     -215.2399       613.44971      41588.812     -19084.444      52.27583       37.263953      36.352615      70815.042      4.4909444      0.225          4.1588812    
    226000   226            304.96178      14072.096     -859.57827     -727.87698      43803.745     -19083.523      52.235762      37.333784      36.305708      70801.89       4.4917786      0.226          4.3803745    
    227000   227            302.50677      14675.005     -316.99489     -49.203327      44391.214     -19090.317      52.172919      37.401787      36.258802      70753.99       4.4948195      0.227          4.4391214    
    228000   228            303.3498       14936.77       598.80185     -489.31009      44700.819     -19086.691      52.063478      37.535797      36.211895      70766.884      4.4940005      0.228          4.4700819    
    229000   229            291.69027      15355.76       340.17893      672.79501      45054.306     -19095.603      51.971425      37.627299      36.164988      70722.238      4.4968375      0.229          4.5054306    
    230000   230            300.45423      16070.291      35.620367      454.04763      47721.206     -19103.963      51.917782      37.703551      36.118082      70700.594      4.4982142      0.23           4.7721206    
    231000   231            299.91837      15663.281     -1485.061       825.41426      47649.491     -19112.444      51.952688      37.737547      36.071175      70719.955      4.4969827      0.231          4.7649491    
    232000   232            300.78743      15513.036     -1377.3738     -929.98225      48846.465     -19117.977      51.894159      37.838355      36.024269      70736.879      4.4959068      0.232          4.8846465    
    233000   233            304.03781      16553.365     -350.9185      -136.90319      50147.916     -19126.974      51.831756      37.895136      35.977362      70665.707      4.5004349      0.233          5.0147916    
    234000   234            301.84397      16891.669     -979.57927     -264.29025      51918.877     -19135.58       51.901335      37.861037      35.930455      70604.723      4.5043221      0.234          5.1918877    
    235000   235            293.87007      18062.968     -99.821738     -365.44169      54654.168     -19133.67       51.876121      37.89528       35.883549      70542.038      4.5083247      0.235          5.4654168    
    236000   236            293.1392       19334.619     -181.03536      623.99846      57560.894     -19138.551      51.855209      37.930805      35.836642      70487.444      4.5118165      0.236          5.7560894    
    237000   237            299.54985      18706.859     -1782.1652     -33.715749      57936.456     -19135.297      51.894885      37.976711      35.789736      70534.305      4.508819       0.237          5.7936456    
    238000   238            310.20545      19797.138     -647.33497      319.17585      59719.575     -19134.124      51.901596      37.996647      35.742829      70487.955      4.5117838      0.238          5.9719575    
    239000   239            298.82583      19409.235     -455.91363     -821.15345      59504.773     -19132.459      51.862965      38.086601      35.695922      70509.588      4.5103996      0.239          5.9504773    
    240000   240            296.72106      19694.231      11.284474     -1600.1382      60671.546     -19127.022      51.824106      38.176334      35.649016      70529.951      4.5090974      0.24           6.0671546    
    241000   241            301.53386      18358.562     -1172.3326     -2745.7912      58993.809     -19126.811      51.874868      38.231352      35.602109      70607.753      4.5041288      0.241          5.8993809    
    242000   242            302.6994       19854.491     -697.2775      -548.56258      60809.314     -19121.263      51.886378      38.236127      35.555203      70539.18       4.5085074      0.242          6.0809314    
    243000   243            293.38908      19270.595     -939.36049     -1545.183       60296.329     -19118.502      51.922191      38.26932       35.508296      70555.941      4.5074364      0.243          6.0296329    
    244000   244            305.96841      19318.018     -1011.6627     -1293.6858      60259.403     -19118.464      51.923438      38.330602      35.461389      70577.265      4.5060745      0.244          6.0259403    
    245000   245            308.83493      19811.775     -1138.4473     -761.19602      61334.968     -19118.84       51.968346      38.327362      35.414483      70538.908      4.5085248      0.245          6.1334968    
    246000   246            300.22494      19825.627     -1859.152      -952.80999      62288.844     -19114.897      52.043371      38.330975      35.367576      70553.828      4.5075713      0.246          6.2288844    
    247000   247            298.82009      21061.423     -1646.4323      849.23268      63981.467     -19106.835      52.104394      38.302111      35.32067       70489.753      4.5116687      0.247          6.3981467    
    248000   248            293.64471      21750.299     -49.727026     -8.7365134      65309.362     -19109.471      52.031447      38.384852      35.273763      70449.443      4.5142502      0.248          6.5309362    
    249000   249            299.6115       21357.428     -670.04802      173.50653      64568.827     -19104.796      52.074365      38.427249      35.226856      70491.567      4.5115526      0.249          6.4568827    
    250000   250            296.40104      21129.308     -44.822216     -207.30648      63640.051     -19110.204      52.051469      38.501269      35.17995       70502.295      4.5108661      0.25           6.3640051    
Loop time of 2638.51 on 1 procs for 250000 steps with 4000 atoms

Performance: 8.186 ns/day, 2.932 hours/ns, 94.751 timesteps/s, 379.002 katom-step/s
95.1% CPU use with 1 MPI tasks x 1 OpenMP threads

MPI task timing breakdown:
Section |  min time  |  avg time  |  max time  |%varavg| %total
---------------------------------------------------------------
Pair    | 2387.3     | 2387.3     | 2387.3     |   0.0 | 90.48
Neigh   | 0.2341     | 0.2341     | 0.2341     |   0.0 |  0.01
Comm    | 39.87      | 39.87      | 39.87      |   0.0 |  1.51
Output  | 0.12509    | 0.12509    | 0.12509    |   0.0 |  0.00
Modify  | 190.89     | 190.89     | 190.89     |   0.0 |  7.23
Other   |            | 20.12      |            |       |  0.76

Nlocal:           4000 ave        4000 max        4000 min
Histogram: 1 0 0 0 0 0 0 0 0 0
Nghost:           5404 ave        5404 max        5404 min
Histogram: 1 0 0 0 0 0 0 0 0 0
Neighs:         142891 ave      142891 max      142891 min
Histogram: 1 0 0 0 0 0 0 0 0 0
FullNghs:       285782 ave      285782 max      285782 min
Histogram: 1 0 0 0 0 0 0 0 0 0

Total # of neighbors = 285782
Ave neighs/atom = 71.4455
Neighbor list builds = 281
Dangerous builds = 0
System init for write_data ...
System init for write_restart ...
Completed Ti 4k, 1e9 s^-1
Reference Lz after equilibration = 46.906599808752 Angstrom
Final compressive engineering strain = 0.25
Total wall time: 1:00:08
