LAMMPS data file via write_data, version 22 Jul 2025, timestep = 100000, units = metal

4000 atoms
1 atom types

-0.05819199148153942 51.15369081476186 xlo xhi
-0.03359716194705875 29.533597161947412 ylo yhi
-0.053299904375901264 46.85329990437607 zlo zhi

Masses

1 47.88

Atoms # atomic/kk

1 1 51.134699377156394 29.507300053443863 46.852709416985824 -1 -1 -1
2 1 2.43433298463442 1.576503051999029 46.79175373226814 0 0 -1
3 1 0.8589899348383321 1.4516628168657044 2.2680158017004945 0 0 0
41 1 -0.051801555959716444 2.8912632042806816 46.813273733957196 0 0 -1
4 1 3.4115319856749386 29.417987188457634 2.1962091235485977 0 -1 0
5 1 5.042973481551339 29.46344615687793 46.76615755826867 0 -1 -1
7 1 6.008805460199565 1.3247046883122848 2.255311200290113 0 0 0
44 1 3.3852471843126906 2.948356991639392 2.2616429317894635 0 0 0
45 1 5.015037101109629 2.9986726450482997 46.82711807886972 0 0 -1
6 1 7.65199658167561 1.3815447050230898 46.75130495841004 0 0 -1
8 1 8.52442252544132 29.45236367733547 2.3117399394796885 0 -1 0
9 1 10.248491939282939 29.526573056844963 0.05855209005652473 0 -1 0
48 1 8.482130412694168 2.8563971954151794 2.189922966555288 0 0 0
49 1 10.216011568541584 2.942148885265548 -0.017982395514010624 0 0 0
10 1 12.671833360579871 1.3647610571335171 0.02317965571334317 0 0 0
11 1 10.991945861501607 1.5313733940930396 2.3757519348264826 0 0 0
12 1 13.82038592845302 -0.030905137774308894 2.3538643809166886 0 0 0
52 1 13.621556317449631 3.035664761839993 2.26395109616597 0 0 0
13 1 15.308858118403009 0.008352055443352824 0.03496639810666131 0 0 0
15 1 16.216373582996727 1.5768296926339367 2.3875963589916656 0 0 0
53 1 15.220407429636786 2.8324177682674008 46.83193687630275 0 0 -1
14 1 17.835530607848106 1.3948564183994903 0.09509902401321024 0 0 0
16 1 18.691864003115214 29.352678630516113 2.1411405220382465 0 -1 0
56 1 18.69689967559553 2.834369583690784 2.166121800737824 0 0 0
17 1 20.35722123285702 29.37059474061254 0.010254951624297607 0 -1 0
18 1 22.932557002525282 1.362419680515494 -0.03252385898042586 0 0 0
19 1 21.35402819638639 1.3769021206087546 2.354906248528909 0 0 0
57 1 20.42726148143878 2.7481996175878147 -0.030861397081013316 0 0 0
20 1 23.763869215350837 29.3587126964585 2.341640099100509 0 -1 0
21 1 25.602357787789273 29.51682100325288 0.06543337923265045 0 -1 0
23 1 26.334530678203134 1.5147448690566176 2.332245794303856 0 0 0
60 1 23.85019858679525 2.932749400968643 2.2223789116733235 0 0 0
61 1 25.437735432301857 2.9153701207939404 46.72654363259077 0 0 -1
22 1 28.110835001850237 1.5846647816948254 -0.026555321050589026 0 0 0
24 1 28.957323200563977 0.08339645961923776 2.363669490880385 0 0 0
25 1 30.66121147414753 29.531256191467875 0.028964051879099968 0 -1 0
64 1 28.957696423308207 2.8744691312172646 2.495663963445757 0 0 0
65 1 30.600351206311206 2.8779729210446154 -0.05313257649919973 0 0 0
26 1 33.09177350306844 1.450914164103193 -0.0069845332023503685 0 0 0
27 1 31.65926787781185 1.4045645597251626 2.4117442769819792 0 0 0
28 1 34.107457508579614 -0.025316716473332293 2.2168847741856 0 0 0
29 1 35.681260180531936 29.425140620515435 46.838953184406854 0 -1 -1
31 1 36.56201571714671 1.4968732786896362 2.232596374503855 0 0 0
68 1 34.08679251695645 2.838515738725697 2.2194486677978333 0 0 0
69 1 35.788738632584796 2.9538579097847006 46.836499158961765 0 0 -1
30 1 38.279443125629086 1.5212097086205079 46.74450532339315 0 0 -1
32 1 39.09626740301964 29.473375150248764 2.2659378622826436 0 -1 0
72 1 39.269987105039775 2.8042982323673544 2.269671994619285 0 0 0
33 1 40.67451922514283 29.409377806854906 0.028572012894240092 0 -1 0
34 1 43.36314351178581 1.3685594817328126 -0.029932068336603043 0 0 0
35 1 41.69959929918676 1.3209442135062037 2.3996912938778996 0 0 0
36 1 44.194463945735166 29.43360294304455 2.328356889510521 0 -1 0
73 1 40.84510949416912 2.761406209842927 46.804233416386246 0 0 -1
76 1 44.300023952074184 2.8320937069528407 2.1902155723940866 0 0 0
37 1 45.94664157630376 0.00545744501837693 -0.025200769447180072 0 0 0
39 1 46.81754290333906 1.510472681627383 2.3286845064590374 0 0 0
77 1 45.97918328312461 2.879177974404607 46.834148845361746 0 0 -1
38 1 48.54080725422537 1.4526049825868035 -0.035454788404964445 0 0 0
40 1 49.46410750773812 -0.005027769753609437 2.2368095720361656 0 0 0
80 1 49.35917533665898 2.926604398468859 2.2181010491269078 0 0 0
42 1 2.479008650798069 4.470020538283687 46.73962817804303 0 0 -1
43 1 0.7572981085584976 4.3286133263219195 2.227620682573715 0 0 0
81 1 51.08299178437645 6.005145208879144 -0.03294769108760935 -1 0 0
47 1 5.9011873277870235 4.356356170894688 2.197461240519643 0 0 0
84 1 3.308785590919194 5.894969632404899 2.2082731468745456 0 0 0
85 1 5.001724614013471 5.732623761957418 46.79843625107996 0 0 -1
46 1 7.590790118128986 4.305870762582974 -0.042417537647297325 0 0 0
88 1 8.583148742786829 5.864832287887635 2.3826306194499725 0 0 0
89 1 10.078507084257495 5.818724741699043 46.849510243292855 0 0 -1
50 1 12.618046595709206 4.455359328975346 46.73226859890421 0 0 -1
51 1 11.071788915051881 4.3970609677146495 2.379294496459519 0 0 0
92 1 13.477103673075973 5.903917825482459 2.2192992311950053 0 0 0
55 1 16.108174073603106 4.3863389170144185 2.4140156998166074 0 0 0
93 1 15.310801146969183 5.886977591538394 0.014913630883528421 0 0 0
54 1 17.72304954359738 4.322517677856208 -0.04163539685866653 0 0 0
96 1 18.711987776894798 5.624522829973582 2.3418792763065657 0 0 0
97 1 20.271729894292264 5.711957822933492 46.8502783529121 0 0 -1
58 1 22.97957842291388 4.454971738055478 46.8063888051853 0 0 -1
59 1 21.31332972558793 4.324301278506238 2.231849058006404 0 0 0
100 1 23.859404834726096 5.7907331388694345 2.237084854138638 0 0 0
101 1 25.3360892868831 5.688523196916881 -0.005969357040425576 0 0 0
63 1 26.336388543151358 4.341976779933363 2.239526609010199 0 0 0
104 1 29.017459962784994 5.881010976655121 2.2381613581308275 0 0 0
105 1 30.671389823248155 5.916003785391899 -0.010754736959561436 0 0 0
62 1 28.132165957431887 4.414688332720728 46.81666858295763 0 0 -1
66 1 33.2573991318519 4.4704190871371035 46.81963618577501 0 0 -1
67 1 31.60034877714322 4.567769432344542 2.3195048149633006 0 0 0
108 1 34.225307818670615 5.895993340747592 2.2141542159781764 0 0 0
109 1 35.860827007982024 6.002449291369926 46.82973804445773 0 0 -1
71 1 36.726982310757606 4.3436177453791345 2.188554985604004 0 0 0
112 1 39.154370203491155 5.93335557569403 2.248428299274668 0 0 0
70 1 38.35998910382915 4.356953405525469 -0.005765943662783579 0 0 0
113 1 40.89207121524355 5.784077783850018 -0.00925977905915503 0 0 0
116 1 44.27380873719876 5.817006010142772 2.1432018412169738 0 0 0
74 1 43.35689548266511 4.4695274986946885 46.804362660957814 0 0 -1
75 1 41.73740152600227 4.296376351543864 2.2859677005533445 0 0 0
117 1 46.05373232024621 5.843690346144139 46.778683546929365 0 0 -1
79 1 46.89861227031062 4.466152855055994 2.304950128609 0 0 0
120 1 49.51675400886671 5.836303223158263 2.2590643950065386 0 0 0
78 1 48.580564774047275 4.41007482198053 46.78623800693512 0 0 -1
121 1 -0.013965442020624545 8.920191164824995 46.849694932975126 0 0 -1
122 1 2.4420430613337865 10.320145534029598 46.80089689814327 0 0 -1
123 1 0.7708779951641586 10.28610250495008 2.346481874601923 0 0 0
82 1 2.47506149078905 7.338640714491933 46.783937973449376 0 0 -1
83 1 0.735129297876925 7.3648143822659256 2.1987942171554584 0 0 0
124 1 3.335780058669391 8.767739838558738 2.2203700857430424 0 0 0
125 1 5.039501598462313 8.77999166727782 46.59692169606032 0 0 -1
127 1 5.8721781935775335 10.268949772298326 2.1987923376294463 0 0 0
87 1 6.029055872303845 7.112548975574358 2.2536216927567714 0 0 0
129 1 10.175225213549998 8.853337622881007 46.77100322095158 0 0 -1
126 1 7.567951062444953 10.266783303398718 46.709750512558315 0 0 -1
128 1 8.508335692200934 8.826700362022745 2.3699581122201305 0 0 0
86 1 7.665149714805111 7.4620366493258965 46.84741441524144 0 0 -1
130 1 12.773895510630284 10.348037728743847 0.05318867052664972 0 0 0
131 1 10.960474263194016 10.299724306602949 2.2473110303023667 0 0 0
132 1 13.606181661291606 8.830576801787014 2.231461072790862 0 0 0
90 1 12.564651008775616 7.2868112878687175 -0.04104242666515063 0 0 0
91 1 10.815618180649485 7.45819927856956 2.21336433639265 0 0 0
133 1 15.48049538198392 8.794852150059999 46.83039690998097 0 0 -1
135 1 16.147838992347687 10.223788041224752 2.2893420498240427 0 0 0
95 1 16.079330080550235 7.378635049330997 2.3124318286632497 0 0 0
134 1 17.92363653443843 10.32513763335839 0.03269834669031637 0 0 0
136 1 18.66380622140917 8.885239701025718 2.314693238646183 0 0 0
94 1 17.868439884042843 7.331802730617564 46.78162043601386 0 0 -1
137 1 20.417636753943277 8.804194420410848 46.8417977152198 0 0 -1
138 1 23.039347221323133 10.24507154313538 -0.014920296008932741 0 0 0
139 1 21.2993160864096 10.361667257475537 2.2230259811078126 0 0 0
98 1 22.82517055773467 7.369598623549668 -0.017962273011067804 0 0 0
99 1 21.18181084386336 7.254610092696415 2.324014734000196 0 0 0
140 1 23.725968100449688 8.823093844596238 2.277913446511002 0 0 0
141 1 25.5590797704941 8.758956612542315 -0.003064737825104778 0 0 0
143 1 26.394687131988558 10.34610362951359 2.358483769370932 0 0 0
103 1 26.36018434562586 7.319694158979857 2.2859379004306826 0 0 0
142 1 28.063421610411208 10.30013220517467 -0.023042615512591593 0 0 0
144 1 28.92820619042798 8.847122436761852 2.390230494639147 0 0 0
145 1 30.553197434759955 8.819700054337655 0.07668623246496216 0 0 0
102 1 28.06361474766338 7.3106233875708835 46.847471097550596 0 0 -1
146 1 33.174138967102095 10.342928519825188 46.83781050147423 0 0 -1
147 1 31.500348857499016 10.4621080605822 2.3353425692386853 0 0 0
106 1 32.991257863588245 7.39439770661736 0.026943803465941676 0 0 0
107 1 31.42663503361391 7.534824328616741 2.452146044529664 0 0 0
148 1 34.11396867697647 8.859515614369641 2.3065896766485863 0 0 0
149 1 35.83452912534628 8.882371484882826 -0.042876037997641406 0 0 0
151 1 36.598229613108586 10.336385073546435 2.231523976883118 0 0 0
111 1 36.59076716212361 7.3839111832187285 2.160089300753898 0 0 0
150 1 38.39123896933627 10.33634751703403 -0.03593885521644654 0 0 0
152 1 39.08608882215756 8.824699546625974 2.3040463795651527 0 0 0
110 1 38.39033545288157 7.3801423059593425 0.03081189455417121 0 0 0
153 1 40.92054140679174 8.823920203643727 -0.013029527504904638 0 0 0
154 1 43.546001677289 10.271687266487808 -0.033870354566515395 0 0 0
155 1 41.768673675195274 10.294628868138329 2.273750342292961 0 0 0
156 1 44.081650676307504 8.750750833779469 2.3209495539296454 0 0 0
114 1 43.46753368444119 7.284344531763603 46.74833575624272 0 0 -1
115 1 41.81891012381264 7.292245551071749 2.290727728683237 0 0 0
157 1 46.07141186569672 8.805370603753538 -0.018700570857683122 0 0 0
159 1 46.90664512544008 10.339301088263706 2.2221677844286973 0 0 0
119 1 46.706779135450574 7.41228712137198 2.396414539976475 0 0 0
158 1 48.62671979114552 10.388928612629385 0.040219127573440386 0 0 0
160 1 49.38250779336147 8.837681917538365 2.3805141545505126 0 0 0
118 1 48.65952694473768 7.3373735383676255 0.1358898005988324 0 0 0
161 1 51.0879877496388 11.751330397581137 0.05354592498511335 -1 0 0
162 1 2.4656800190852817 13.266096981714373 46.84645518346137 0 0 -1
163 1 0.8113995565750928 13.261160087119412 2.397223231014997 0 0 0
164 1 3.300157797346575 11.732960447358227 2.2628906891778673 0 0 0
165 1 5.031008040324735 11.763316371189063 46.78442784747776 0 0 -1
167 1 5.930070542490418 13.302037104072173 2.2470494167848023 0 0 0
166 1 7.627893212020927 13.30294283288999 46.81440431945875 0 0 -1
168 1 8.492502567091645 11.756940841095089 2.2610625874637327 0 0 0
169 1 10.186147743682705 11.80868702582558 46.76178991889672 0 0 -1
170 1 12.792481399365338 13.16592359625719 0.07174820915466296 0 0 0
171 1 11.073957620740815 13.337144402713012 2.2544106207304524 0 0 0
172 1 13.531345861630372 11.71235897773977 2.2686125753192643 0 0 0
173 1 15.453833090547556 11.74625217396381 -0.014196845120130516 0 0 0
175 1 16.02840948599182 13.258130902958786 2.290066838679374 0 0 0
174 1 17.83891039585506 13.241128900612313 46.78419828745065 0 0 -1
176 1 18.580666298752607 11.880971915835616 2.2964783843752885 0 0 0
177 1 20.445384186490138 11.733600701667722 -0.04228548848430445 0 0 0
178 1 22.962685774706653 13.244801958420124 -0.00600067579302584 0 0 0
179 1 21.23350083379144 13.360176272433256 2.416079713324984 0 0 0
180 1 23.882964853862624 11.696250423135192 2.350078055904513 0 0 0
181 1 25.48716222439188 11.639112131779651 0.03173101046807394 0 0 0
183 1 26.355092176825814 13.282274054950205 2.3856110996717814 0 0 0
182 1 28.126481896386792 13.264550227797589 0.007684112163766137 0 0 0
184 1 28.915418912698332 11.788528205581125 2.323433546580507 0 0 0
185 1 30.663238379720514 11.75881715016728 -0.002562196518460537 0 0 0
186 1 33.03834453864515 13.217022030517288 46.723954606708766 0 0 -1
187 1 31.50318200699588 13.337317252181412 2.304741684674496 0 0 0
188 1 34.08973822163776 11.865440025394777 2.310953619350799 0 0 0
189 1 35.81643605224973 11.842631553367635 46.79701285382863 0 0 -1
191 1 36.670542895055675 13.23683349802121 2.371685586677508 0 0 0
190 1 38.25398642456125 13.130115154734627 46.779624539671175 0 0 -1
192 1 39.24071992997105 11.768401195467904 2.34393803580642 0 0 0
193 1 40.794537490107885 11.852095652683158 46.76643175568424 0 0 -1
194 1 43.40133516140003 13.244370669869246 -0.049925260980550605 0 0 0
195 1 41.74674975916453 13.266843530932094 2.3753869434888126 0 0 0
196 1 44.17513441838781 11.6714130432534 2.1684756083510037 0 0 0
197 1 46.06145497922245 11.93253569681131 -0.0515118983665886 0 0 0
199 1 46.80721047441051 13.323281421331279 2.250754963647556 0 0 0
198 1 48.716229516905386 13.365015115486857 0.05164544962837271 0 0 0
200 1 49.442156622554776 11.910450772915118 2.270291417193804 0 0 0
201 1 0.018274184079637865 14.88186736062456 -2.8227450618271895e-06 0 0 0
202 1 2.457485835216293 16.28618729855328 46.848001126052075 0 0 -1
203 1 0.7726525212067242 16.34925601744429 2.352006506763954 0 0 0
241 1 51.10247555898573 17.78317874989 46.84827303654793 -1 0 -1
204 1 3.473134847105345 14.797877116467477 2.3364705820170926 0 0 0
205 1 5.201685311116368 14.910507442080904 46.8469343453768 0 0 -1
207 1 6.039166806181712 16.311899007528254 2.337861073180476 0 0 0
244 1 3.4386457160040416 17.704840705054295 2.274262714684775 0 0 0
245 1 5.125661468032162 17.78045677461965 -0.02524308585627145 0 0 0
206 1 7.612478956874525 16.380702842867606 0.02867533612578671 0 0 0
208 1 8.434438787473265 14.81044515414744 2.1473798688217567 0 0 0
209 1 10.233166195483363 14.710401218148823 -0.052831377427370714 0 0 0
248 1 8.371778989214777 17.739702351223436 2.324934526451645 0 0 0
249 1 10.235852492305668 17.689133016725172 46.80821503005082 0 0 -1
210 1 12.80469421356587 16.164384392418192 0.008983178311698394 0 0 0
211 1 10.994134816152252 16.301014783572803 2.2865308320944027 0 0 0
212 1 13.579339762669923 14.869973662367373 2.242837451474362 0 0 0
252 1 13.549207007000764 17.738093711014173 2.341895092970319 0 0 0
213 1 15.357962261867364 14.676462305957502 0.06331796725154318 0 0 0
215 1 16.146796969489756 16.25072780844021 2.343165380498287 0 0 0
253 1 15.247496670830708 17.64886394785013 46.818690036142634 0 0 -1
214 1 17.85396054732684 16.149595093811435 0.03460262436728197 0 0 0
216 1 18.75955280649718 14.802378498037186 2.5534181685434234 0 0 0
256 1 18.708386041245475 17.63373999380967 2.307759511875846 0 0 0
217 1 20.413203356460045 14.698706208818244 46.83291641295114 0 0 -1
218 1 22.89263408870672 16.216072138040964 46.828088957686944 0 0 -1
219 1 21.311252321704735 16.198360834349458 2.340264371101868 0 0 0
257 1 20.298027930304304 17.57826243629699 46.77191331942792 0 0 -1
220 1 23.639973919341095 14.804012352503612 2.2670103451372716 0 0 0
221 1 25.53492639026601 14.721443512198276 0.100207293614537 0 0 0
223 1 26.405307656451566 16.175395005836037 2.37942589331537 0 0 0
260 1 23.926444179907083 17.58155556538955 2.327757942424057 0 0 0
261 1 25.426281721265564 17.698447606442684 0.04467793359500222 0 0 0
222 1 28.058204600939796 16.1969891954628 0.0956537511726973 0 0 0
224 1 28.949979707863005 14.719767092046729 2.382305233093283 0 0 0
225 1 30.596323816322105 14.674594547831243 46.7773640443831 0 0 -1
264 1 28.88599338419154 17.728428732368606 2.194923272396007 0 0 0
265 1 30.67366231176457 17.777528085399368 46.79261306124708 0 0 -1
226 1 33.30737631872171 16.279032757312976 46.825131981253655 0 0 -1
227 1 31.47955034815559 16.20439763075335 2.258632483721495 0 0 0
228 1 34.08969735270598 14.715923954424131 2.3426714490818283 0 0 0
229 1 35.86254256629614 14.706944081009388 0.04391857033866149 0 0 0
231 1 36.606132745248914 16.209072707188774 2.226016330388711 0 0 0
268 1 34.02168633338066 17.677274403769182 2.390579525433063 0 0 0
269 1 35.89351870347214 17.702095593105597 46.84967421786207 0 0 -1
230 1 38.37685113667965 16.12922549913148 0.011503789325243948 0 0 0
232 1 39.1817400553215 14.75037757881644 2.139498674995497 0 0 0
272 1 39.19543582599522 17.763506181326363 2.1852791610310494 0 0 0
233 1 40.910760668523125 14.77513384180251 -0.04224496104790326 0 0 0
234 1 43.399548107282314 16.21125103963535 0.021522189395978122 0 0 0
235 1 41.842244303972464 16.20559097650981 2.405980893177643 0 0 0
236 1 44.185765131723144 14.671214167484559 2.322581985462935 0 0 0
273 1 40.92282180612874 17.562054906000142 0.09613706900489381 0 0 0
276 1 44.33394216421041 17.807723256994635 2.285799286795139 0 0 0
237 1 46.03909471679411 14.89866327917216 46.845831354107645 0 0 -1
239 1 46.88484087426133 16.248861101222616 2.336528238232165 0 0 0
277 1 45.90161173325019 17.718478789956585 -0.04363589026958073 0 0 0
238 1 48.62843649076899 16.307940760964186 -0.043697754718171174 0 0 0
240 1 49.47103998525344 14.774492488654001 2.3339549835985474 0 0 0
280 1 49.506835709719056 17.74668290537204 2.3881594784181366 0 0 0
242 1 2.345139948419599 19.09957753372909 -0.0499844602390485 0 0 0
243 1 0.7944390367463816 19.258778225344216 2.3324354745102616 0 0 0
281 1 51.03404937506622 20.629423178771177 -0.030326142194152333 -1 0 0
247 1 5.885127623630849 19.140362001645926 2.2520166259318044 0 0 0
284 1 3.2467344185264304 20.637082839387368 2.104861607619343 0 0 0
285 1 4.9608549731979945 20.622536694010215 46.83720284083128 0 0 -1
246 1 7.643375316529728 19.254357053414864 -0.05033173335135903 0 0 0
288 1 8.567544207176836 20.58237684313596 2.3429446143073553 0 0 0
289 1 10.39503500466852 20.67952458716713 46.85237135105951 0 0 -1
250 1 12.960558709421123 19.12291680186111 46.79216318187786 0 0 -1
251 1 11.077327767940005 19.11036136934751 2.1604603277845893 0 0 0
292 1 13.591980592260109 20.852102624467 2.2589958070893412 0 0 0
255 1 16.175050367404193 19.22567112947278 2.423054290816221 0 0 0
293 1 15.522096454513704 20.619633215917716 -0.02418829115763987 0 0 0
254 1 17.84370668374833 19.115959818963738 -0.008707747386858837 0 0 0
296 1 18.861134312209803 20.561785191317 2.406207870212096 0 0 0
258 1 22.98103494804972 19.120177738417667 46.76477733839809 0 0 -1
259 1 21.219553950719757 19.039758369987148 2.30335242928113 0 0 0
297 1 20.419279792928055 20.65911570810706 -0.004465749523716892 0 0 0
263 1 26.44990364629859 19.117880255446266 2.340138209553485 0 0 0
300 1 23.837978797467812 20.58252176708985 2.2644302925467077 0 0 0
301 1 25.522661733091482 20.638504502469686 46.82913034329107 0 0 -1
262 1 27.96779966862689 19.19131629900324 46.82055981364758 0 0 -1
304 1 29.080675088337216 20.536177281929206 2.4093812918810538 0 0 0
305 1 30.630242467889733 20.594813621836835 0.006327777741341808 0 0 0
266 1 33.316554730307914 19.201750249624595 46.80132140046212 0 0 -1
267 1 31.558348123477103 19.213490483681028 2.240815144881583 0 0 0
271 1 36.636945603003696 19.278946534451165 2.405763856391196 0 0 0
308 1 34.096503664408885 20.63125406350762 2.3041411645961296 0 0 0
309 1 35.76473750424091 20.70934125024195 0.05609028205525719 0 0 0
270 1 38.361614624624394 19.2441344361754 -0.00736625164026363 0 0 0
312 1 39.24779075338762 20.521657386578532 2.3469986564762038 0 0 0
274 1 43.40905684727008 19.094072826659207 0.008143355699819613 0 0 0
275 1 41.77989718728789 19.20012167736204 2.4007486961766396 0 0 0
313 1 40.92763014373028 20.53426539126358 0.12243510050781008 0 0 0
316 1 44.35006967072587 20.70113940705064 2.348013634687262 0 0 0
279 1 46.81071432651187 19.172240451249536 2.386270427342721 0 0 0
317 1 46.042342795501185 20.463530702990752 0.0526665791455989 0 0 0
278 1 48.47637588058774 19.252097190024728 46.8057603249748 0 0 -1
320 1 49.434599618063544 20.67920871129011 2.184293335749176 0 0 0
321 1 51.125268131760656 23.620689199032604 -0.03727077771272725 -1 0 0
322 1 2.507948793878716 25.07166396820351 46.73803835805529 0 0 -1
323 1 0.8206215615056804 25.00103710586864 2.3717314338778723 0 0 0
282 1 2.4496813643692614 22.12066975916855 46.738952293826095 0 0 -1
283 1 0.8532526884463174 22.145576685464206 2.2562069608829756 0 0 0
324 1 3.4229440994108127 23.605312691084272 2.253542715616144 0 0 0
325 1 5.065841717633925 23.594447135134224 -0.01787635273573017 0 0 0
327 1 5.9513726841222185 25.099549250146104 2.184435393479248 0 0 0
287 1 5.871486833369317 22.077942431657114 2.2832537590205764 0 0 0
326 1 7.60664385495211 24.957539804551345 -0.003661031566568758 0 0 0
328 1 8.441147152829245 23.602600437267782 2.3425984251963583 0 0 0
329 1 10.213038006687473 23.606427518229808 -0.029010768672755708 0 0 0
286 1 7.654262825963388 22.172947175819125 0.07221191871464956 0 0 0
330 1 12.880478533919009 25.059568926850687 46.83004984702959 0 0 -1
331 1 11.166296295971112 25.17266602880212 2.301008503244433 0 0 0
332 1 13.639603702986108 23.74090293778655 2.298241566499929 0 0 0
290 1 12.868146828613652 22.140252736168044 0.02871574556641889 0 0 0
291 1 10.982588060710556 22.18465471767132 2.390777248582153 0 0 0
333 1 15.299560211746249 23.505657198751443 0.09556875151723009 0 0 0
335 1 16.140553829038325 25.035832440780084 2.3792227159016655 0 0 0
295 1 16.1452173626179 22.02889205450373 2.4646251694112777 0 0 0
334 1 17.739899579841698 24.94172917609493 46.801996697182936 0 0 -1
336 1 18.70076609248017 23.640170048790957 2.237064047113737 0 0 0
294 1 17.96284405647814 21.99604067749015 0.1032921928623538 0 0 0
337 1 20.437629225834478 23.584491176362796 -0.050483401536439244 0 0 0
338 1 23.00829652650585 24.952801190004585 0.022800341463732925 0 0 0
339 1 21.241054249884957 25.144102672872677 2.321685796789176 0 0 0
298 1 22.965883694002926 22.000409779435437 0.024023747133584624 0 0 0
299 1 21.219710210446017 22.101692943748873 2.361601678859645 0 0 0
340 1 23.917152617815145 23.611922788892727 2.280739963389776 0 0 0
341 1 25.617862182246352 23.5525562941709 46.82115300611618 0 0 -1
343 1 26.419154799404748 25.05908546243471 2.3016305119078457 0 0 0
303 1 26.367247458201934 22.036244906168676 2.2620507738274602 0 0 0
342 1 28.220549684233163 24.98277174180278 0.11268467059616281 0 0 0
344 1 29.03489633209756 23.639794529313484 2.443061995866181 0 0 0
345 1 30.69159469844613 23.605445625182057 0.04651662297383874 0 0 0
302 1 28.185689871538056 22.042908111519665 0.06864951431635646 0 0 0
346 1 33.32389948347836 25.20030379794172 46.776948236772206 0 0 -1
347 1 31.649397952596487 25.212113523180953 2.2034714694554207 0 0 0
306 1 33.19245144915554 22.19862811324279 46.80459851564588 0 0 -1
307 1 31.476092669449628 22.045879807651062 2.331690159720767 0 0 0
348 1 34.021159018846916 23.689732637415005 2.408923410573333 0 0 0
349 1 35.71004457220839 23.56832830727896 0.0035633995310422606 0 0 0
351 1 36.59278821213965 24.954884192455488 2.29185528461319 0 0 0
311 1 36.604276406665804 22.181261136927212 2.3072761697220017 0 0 0
350 1 38.184453749399225 25.063110402308567 46.812992546291724 0 0 -1
352 1 39.162948649001166 23.618955633959686 2.318459946678573 0 0 0
310 1 38.42403816748268 22.23036728644842 0.08217435939256829 0 0 0
353 1 40.71103057652964 23.52197740137359 0.0712764611680803 0 0 0
354 1 43.321569794687136 25.053500548900267 0.030542775835258076 0 0 0
355 1 41.70738398212718 25.077120900118132 2.3263968330678226 0 0 0
356 1 44.229048613707036 23.65455028870074 2.4113617631593853 0 0 0
314 1 43.31083571023933 22.100441070600944 -0.01116099480902794 0 0 0
315 1 41.81827751279155 22.169690631745468 2.3428234231827894 0 0 0
357 1 46.11025405481068 23.490035458549002 0.01403776512538202 0 0 0
359 1 46.905090382907446 24.99196632245038 2.2848275698771667 0 0 0
319 1 46.83072017796857 22.060456881070387 2.295902627837507 0 0 0
358 1 48.48610504456005 24.990342417938464 -0.04771879741823112 0 0 0
360 1 49.445412051057716 23.557939194525872 2.2860974823659115 0 0 0
318 1 48.58439468741744 22.19674406119246 46.704173091762364 0 0 -1
361 1 -0.04324433447050566 26.507059723961042 46.83346357245765 0 0 -1
362 1 2.4199037669052754 28.08607137020421 0.036795043694101096 0 0 0
363 1 0.7109977993582025 28.10604632838877 2.3642096312655796 0 0 0
364 1 3.2792454294440985 26.599532359785293 2.311831216425138 0 0 0
365 1 5.177558789763427 26.587272207637426 46.81854129968381 0 0 -1
367 1 5.939317278823097 27.98593021366016 2.279619215631005 0 0 0
366 1 7.674226166631723 28.000086054736727 46.82713995020993 0 0 -1
368 1 8.449431685015085 26.483215869165235 2.3138093839709155 0 0 0
369 1 10.21276288614822 26.627314872987284 0.045226362525937654 0 0 0
370 1 12.80413555826277 28.055129407259734 46.84360580204379 0 0 -1
371 1 11.16549412324888 28.073613593539235 2.326646194794731 0 0 0
372 1 13.637085219681577 26.654085412357574 2.33329494928065 0 0 0
373 1 15.275385091038656 26.530751241388344 46.813718639942536 0 0 -1
375 1 16.192095689566578 27.973855133243383 2.3199277304590487 0 0 0
374 1 17.695446161639982 27.983039857629564 -0.03318366675925969 0 0 0
376 1 18.719414328118308 26.378360391598363 2.1938033659643037 0 0 0
377 1 20.520429643999577 26.43066343713528 46.73966256105151 0 0 -1
378 1 22.92404379057734 27.947601512459883 0.02803469148261752 0 0 0
379 1 21.21145953846107 28.000654525594243 2.375514657852072 0 0 0
380 1 23.968095280072465 26.520923003532026 2.2377556299017334 0 0 0
381 1 25.609745022495122 26.54283111238845 46.800180176637845 0 0 -1
383 1 26.493521812215796 27.959449256733414 2.454138741896447 0 0 0
385 1 30.626776404857978 26.438905173049328 0.018724117358063515 0 0 0
382 1 28.103969458520524 28.04422604411055 0.018914942585942437 0 0 0
384 1 28.987417584765932 26.593471993842783 2.3922400887164543 0 0 0
386 1 33.1050267888333 28.153410602556782 46.82253860506556 0 0 -1
387 1 31.43838855053853 28.067861120274422 2.245995164916004 0 0 0
388 1 34.1360908916578 26.506397893858257 2.4052463773625155 0 0 0
389 1 35.716641741108205 26.648588780639066 46.78739104582404 0 0 -1
391 1 36.653930389042884 28.07846459685198 2.3008028223412356 0 0 0
390 1 38.23456044453087 28.05065287094152 46.77456087192881 0 0 -1
392 1 39.15495256277242 26.453884177569016 2.393193097095308 0 0 0
393 1 40.77616674269778 26.466239432755472 -0.04883952308546694 0 0 0
394 1 43.372622965779144 27.980971471067967 0.004272331217064586 0 0 0
395 1 41.73408534349183 27.90591647034963 2.3390266477140065 0 0 0
396 1 44.29345669879244 26.55822503072264 2.31562505562641 0 0 0
397 1 45.999046358120964 26.574808155645393 46.785384177388124 0 0 -1
399 1 46.76433415803166 28.06022706678121 2.1623212110276766 0 0 0
398 1 48.52813135553521 27.96296044206303 46.83267195610632 0 0 -1
400 1 49.431736561999614 26.596570427232784 2.2306657043053173 0 0 0
401 1 51.067685758155996 29.532805899149043 4.59298470661625 -1 -1 0
402 1 2.405967845320835 1.3041151871783392 4.73118867846659 0 0 0
403 1 0.7658831798266078 1.4947471567723187 7.038174883902214 0 0 0
441 1 0.011375492847787286 2.94137212588928 4.50983093586644 0 0 0
404 1 3.236712289929353 29.511679513362857 7.047881311142349 0 -1 0
405 1 4.976174598730336 0.03200347946933768 4.686560580727697 0 0 0
407 1 5.872283774220219 1.3498269413599213 7.032115291187304 0 0 0
444 1 3.1772290446209714 2.97239810530362 7.062230318279264 0 0 0
445 1 5.066222512290093 2.89619247149528 4.625950230852832 0 0 0
406 1 7.502245566104636 1.4973028285604713 4.668249513735064 0 0 0
408 1 8.471046169340372 0.0516410985121518 7.080072317346346 0 0 0
409 1 10.18561963412621 0.01317300647007466 4.666209086987325 0 0 0
449 1 10.208256705099044 2.9472807165620174 4.621471942999449 0 0 0
448 1 8.521747889345242 2.95790344232145 6.871328207382648 0 0 0
410 1 12.828839667352806 1.424578204977978 4.645662804046926 0 0 0
411 1 10.967110718441937 1.4017312944975755 6.981964693200628 0 0 0
412 1 13.726165484854121 0.15924941975286414 7.056029277700496 0 0 0
452 1 13.60858863469363 2.9361086174346953 6.94364238101845 0 0 0
413 1 15.544202640059801 29.407574647461317 4.575121177389656 0 -1 0
415 1 16.239108389550132 1.4828687213925664 7.075567620080982 0 0 0
453 1 15.437903794622946 2.8803708851375984 4.695617365266535 0 0 0
414 1 17.945331388065764 1.2874269496562354 4.533025888048042 0 0 0
416 1 18.66039747918228 29.375677237177513 7.016746458801999 0 -1 0
456 1 18.75740713922998 2.8986348131505264 6.862430791507395 0 0 0
457 1 20.44816928842924 2.7767341751941075 4.590072517842575 0 0 0
417 1 20.58992833950732 29.494877521272752 4.701065638907743 0 -1 0
418 1 23.192438069166887 1.5576940037875049 4.491986297748317 0 0 0
419 1 21.339863784911596 1.3938718531479095 6.973651830935072 0 0 0
460 1 23.82817251379065 2.878092756949507 6.8560184814241 0 0 0
461 1 25.533683949038952 2.9591101306541696 4.68013627018119 0 0 0
420 1 23.772108442805497 29.511712630804748 6.9460268536243435 0 -1 0
421 1 25.55614006267603 29.50604647143062 4.7164638489223645 0 -1 0
423 1 26.47554692097433 1.5714386479446127 6.979440426362802 0 0 0
464 1 29.13406999946422 2.9688498708818885 6.958345508928501 0 0 0
465 1 30.727146781801213 3.0002134159098257 4.51072259361602 0 0 0
422 1 28.138688128244983 1.4442270059079465 4.743593743391956 0 0 0
424 1 29.044101878604778 -0.025333971105542613 6.907274582503028 0 0 0
425 1 30.67870982022809 29.511275694493943 4.665664236907884 0 -1 0
426 1 33.28970865422566 1.4255235807526265 4.575757570137395 0 0 0
427 1 31.507185737243795 1.3896192421414164 6.853170242851204 0 0 0
468 1 34.07504792812014 3.032088688072499 6.851868994322643 0 0 0
469 1 35.70355728819342 2.850700311133343 4.604796053834909 0 0 0
428 1 34.12907306649717 29.520365909330266 6.996209264700017 0 -1 0
429 1 35.879380159043194 29.483585906905063 4.658158206448302 0 -1 0
431 1 36.52418489625407 1.4826206944357583 6.906225742473843 0 0 0
472 1 39.0873002033902 2.8724198927731055 6.906531156842545 0 0 0
430 1 38.288410231110504 1.3845670281587752 4.4846675136171985 0 0 0
432 1 39.21159899225937 -0.01796922624959584 7.076677350266431 0 0 0
473 1 40.86900386179522 2.8827183673916092 4.680242527414822 0 0 0
476 1 44.35546632088965 2.8705883447149763 6.925361724338058 0 0 0
433 1 40.82361451972443 29.403958803616348 4.660451289207101 0 -1 0
434 1 43.40161377306566 1.3730022215927637 4.74682491692364 0 0 0
435 1 41.682005580904104 1.3524996594436447 7.045071875095299 0 0 0
436 1 44.45336003686886 29.457592910337436 7.090665045107929 0 -1 0
477 1 46.09063667692668 2.988581437773019 4.576730765253551 0 0 0
437 1 45.933369986402596 29.526750058989826 4.556436583114281 0 -1 0
439 1 46.84608331381503 1.4542026266485382 6.98195827967924 0 0 0
480 1 49.34222494181725 2.9153555735654826 6.8788715401731295 0 0 0
438 1 48.65961668220979 1.4541190514480504 4.542705423984882 0 0 0
440 1 49.42225469750872 0.03983600992727297 6.979163363431268 0 0 0
481 1 0.060037805682731704 5.79703480394231 4.610007104433697 0 0 0
442 1 2.4740387115097553 4.494937737103993 4.510403388520313 0 0 0
443 1 0.7406317859180335 4.333844760096982 6.965963780061341 0 0 0
484 1 3.19420304769703 5.795606495508071 7.026148829476017 0 0 0
485 1 5.079434466478647 5.784222164716746 4.6371050287620434 0 0 0
447 1 5.8168641551218485 4.26677033596183 7.0097201554702755 0 0 0
488 1 8.45362067633751 5.8963835321453155 7.050055885316152 0 0 0
489 1 10.335776427543239 5.9660385018208775 4.683648197279067 0 0 0
446 1 7.6509462813186975 4.341768253110634 4.611772014530869 0 0 0
450 1 12.729580640522077 4.352522446777122 4.664250515161598 0 0 0
451 1 10.989425094511486 4.326994521823676 6.934411868122187 0 0 0
492 1 13.709965123186791 5.888427245826015 6.88370734934053 0 0 0
455 1 16.140402307192584 4.363687857343325 6.9401357578821345 0 0 0
493 1 15.364096094903935 5.821792381739842 4.6436715484197535 0 0 0
454 1 17.778325277773916 4.3110002650778965 4.525944240727723 0 0 0
496 1 18.737372824655967 5.921044909276148 6.9193984711012755 0 0 0
458 1 23.111723536986066 4.320488479822815 4.609793149072651 0 0 0
459 1 21.195357573493446 4.455960577687754 6.832571548035473 0 0 0
497 1 20.353947309981805 5.756050367781375 4.485420891562393 0 0 0
463 1 26.452160935602894 4.38269762184058 7.044955949749221 0 0 0
500 1 23.88654555145946 5.83886863710151 6.99091723338307 0 0 0
501 1 25.52325309990393 5.880594118904899 4.59917627200427 0 0 0
462 1 28.094001582225573 4.557050886951072 4.565616370435821 0 0 0
504 1 28.9126529255465 5.926295338409641 7.001851888123487 0 0 0
505 1 30.583873152084482 6.060227650067641 4.546352030968447 0 0 0
466 1 33.23869993807841 4.485234546101263 4.58208616326608 0 0 0
467 1 31.494735428941574 4.721462090356466 6.891601443436874 0 0 0
471 1 36.70128182487235 4.374986570981463 6.898912524012187 0 0 0
508 1 34.08374666391842 5.938116194564359 6.9742344763731 0 0 0
509 1 35.65466710497657 5.913227845817193 4.706430650532583 0 0 0
470 1 38.305061571571116 4.369565255445037 4.718503399862321 0 0 0
512 1 39.138231919497144 5.941243315611399 6.884819470159004 0 0 0
513 1 40.82013447321141 5.906745842883856 4.594056553431845 0 0 0
516 1 44.22678436422059 5.813828501713692 7.026613759527054 0 0 0
474 1 43.56030671414382 4.3316024755218185 4.615263151643884 0 0 0
475 1 41.67173889961751 4.471562709015363 6.943964738251758 0 0 0
517 1 46.075219649676896 5.898628918178906 4.650089293696974 0 0 0
479 1 46.74008826898488 4.359307735324736 6.968489506516436 0 0 0
520 1 49.319448216702654 5.864174548562276 7.044660438086735 0 0 0
478 1 48.57820937986298 4.606863606168329 4.577960478594515 0 0 0
521 1 51.072450050091966 8.764597261882122 4.676816713436447 -1 0 0
522 1 2.519775174296474 10.302434842696941 4.581831985270969 0 0 0
523 1 0.8144479968683335 10.211367417959806 7.037272107698387 0 0 0
482 1 2.436939519209002 7.301210410509602 4.659247025468907 0 0 0
483 1 0.6566539102225106 7.355107467781135 6.989297762450355 0 0 0
524 1 3.2775349228823036 8.745095845390338 6.940119913122612 0 0 0
525 1 4.968917725202588 8.806816627594912 4.634918992388018 0 0 0
527 1 5.762739106408482 10.326009263800163 7.040481698238592 0 0 0
487 1 5.7360180998492325 7.298087013693225 7.000739815292595 0 0 0
526 1 7.5341426226458035 10.375480537038369 4.684755122238597 0 0 0
528 1 8.371660016564515 8.742787711987823 7.090013758949202 0 0 0
529 1 10.2011361870708 9.03065893504236 4.671595762325268 0 0 0
486 1 7.580065890478516 7.3407940211928695 4.750135860529491 0 0 0
530 1 12.725812051753428 10.26502463679707 4.600078825877837 0 0 0
531 1 11.064443349017951 10.277655386050535 6.988739106243133 0 0 0
532 1 13.653375191698856 8.850627036024655 7.073353996585843 0 0 0
490 1 12.748879760617344 7.291627125906027 4.529550481778029 0 0 0
491 1 10.99923994150938 7.3420706480520135 6.990666706862992 0 0 0
533 1 15.300808883391744 8.838955779861664 4.58485466714153 0 0 0
535 1 16.25375141185862 10.276281515840482 6.8851033788104115 0 0 0
495 1 16.135707955321582 7.492292424227339 6.858917890704126 0 0 0
534 1 17.803854069517985 10.313634009437285 4.627206128332314 0 0 0
536 1 18.89139934091847 8.905564615195896 6.8701480667328125 0 0 0
494 1 17.882002118102722 7.39425580112378 4.57916253998975 0 0 0
537 1 20.409834804268787 8.945035569126375 4.448820522970761 0 0 0
538 1 23.041059754001306 10.329104557581639 4.593911196128073 0 0 0
539 1 21.262618402513823 10.324402185168926 6.9134378594471 0 0 0
498 1 22.954264272942485 7.250696547728638 4.562361529379668 0 0 0
499 1 21.32548526585849 7.379038884743672 6.796653096169231 0 0 0
540 1 23.905780737232107 8.837615026408708 6.920713866825763 0 0 0
541 1 25.509836882795234 8.86818405846494 4.641130891745611 0 0 0
543 1 26.3652489269497 10.311247005341864 6.8833041806778565 0 0 0
503 1 26.315991771020208 7.330563355077484 6.9257205030378515 0 0 0
542 1 28.156177824115293 10.371235732336022 4.803975707979586 0 0 0
544 1 28.97816783564537 8.652814671740234 7.008332847572804 0 0 0
502 1 28.11969737085558 7.327368582619883 4.677201134962276 0 0 0
545 1 30.765078453080708 8.891192603231591 4.692113570839019 0 0 0
506 1 33.21997622156489 7.466979022722791 4.665627229802042 0 0 0
546 1 33.19650991504318 10.365801474524375 4.658574096555817 0 0 0
507 1 31.589798056122888 7.378118500947959 7.013520622888719 0 0 0
547 1 31.48907093871732 10.288272992673148 7.129117293922738 0 0 0
548 1 34.10686441451503 8.860210889697912 7.012370107891256 0 0 0
511 1 36.609411052839974 7.4144646877831875 6.934845716429082 0 0 0
549 1 35.77223844470964 8.81732058117045 4.651516367312663 0 0 0
551 1 36.68350582979912 10.332483665569777 6.9875262921957475 0 0 0
550 1 38.34487979243332 10.282275143730834 4.58980696395571 0 0 0
510 1 38.23094410801207 7.448651044056719 4.589938379204469 0 0 0
552 1 39.151925729767484 8.809460326846152 6.868243018196791 0 0 0
514 1 43.40289587554278 7.293766524211377 4.637189006602003 0 0 0
515 1 41.777326021790145 7.499673777026369 6.889117711414055 0 0 0
553 1 40.84796371392606 8.861351220240808 4.472044279388669 0 0 0
554 1 43.353387811506465 10.348818929514605 4.618780017071115 0 0 0
555 1 41.74249006640565 10.400680475216891 6.990673468639824 0 0 0
556 1 44.31561296478175 8.91381301044182 7.0998497777492675 0 0 0
519 1 46.828158714860066 7.472556677701112 7.099675518986964 0 0 0
557 1 45.75821187131896 8.843928349313032 4.7314877777584 0 0 0
559 1 46.851618015428244 10.327787623952545 7.010609694797831 0 0 0
518 1 48.63717255202795 7.450990781562944 4.678200920931609 0 0 0
558 1 48.60502439893614 10.299096160749205 4.635950191784958 0 0 0
560 1 49.45136584936574 8.740635914202421 7.157079694130197 0 0 0
561 1 50.97526714531748 11.739184179920182 4.52865378804878 -1 0 0
562 1 2.559827561084323 13.211151091030159 4.6378870821479525 0 0 0
563 1 0.8217597682028649 13.374795230876142 6.947852435233241 0 0 0
564 1 3.216814552766576 11.734199423412923 6.9762117181110295 0 0 0
565 1 5.14616831126639 11.726460441841546 4.600033000989676 0 0 0
567 1 5.922444561785069 13.23305538302241 6.887252061553712 0 0 0
566 1 7.574325134471473 13.390045400784041 4.523119083842911 0 0 0
568 1 8.365076817356524 11.841692781449149 6.870800298246039 0 0 0
569 1 10.078270192847274 11.680891586641007 4.666422428386274 0 0 0
570 1 12.801897842905287 13.368003095055132 4.626952986733514 0 0 0
571 1 11.208678532870197 13.248588211948716 6.847645328921443 0 0 0
572 1 13.645183799534493 11.534469532707435 7.038645375205988 0 0 0
573 1 15.253201674047288 11.679126137955151 4.738829039465318 0 0 0
575 1 16.17623263897946 13.33297526203401 6.976558241214288 0 0 0
574 1 17.77870497080014 13.291820451541588 4.793745281067848 0 0 0
576 1 18.787063412890642 11.776483509327939 7.001085966393913 0 0 0
577 1 20.34906788973054 11.795369728212846 4.592128272635254 0 0 0
578 1 22.911243381642922 13.223710988230922 4.724336417908934 0 0 0
579 1 21.332797983285328 13.30478934436563 6.979141642140673 0 0 0
580 1 23.850428255644914 11.819025733276264 6.884712017150561 0 0 0
581 1 25.61731993273264 11.897360770421319 4.707129672706535 0 0 0
583 1 26.485469630025115 13.360620805634573 6.981208626601075 0 0 0
582 1 28.16208544761798 13.31759659657845 4.740835586930004 0 0 0
584 1 28.905571727068477 11.782102537368289 7.019315965246308 0 0 0
585 1 30.72640528095348 11.73987317482307 4.612825023611375 0 0 0
586 1 33.142693936731476 13.34368967010594 4.613236663164154 0 0 0
587 1 31.505744012329362 13.267316744051932 7.007894383138837 0 0 0
588 1 34.01697133547502 11.767075663451735 6.907521239052957 0 0 0
589 1 35.791987603303255 11.770581916514134 4.689045552232431 0 0 0
591 1 36.66626141624674 13.306388936721504 6.987179498901837 0 0 0
590 1 38.34789269797413 13.287015509581714 4.618384793190015 0 0 0
592 1 39.14818716276582 11.828328565427165 7.104685857298295 0 0 0
593 1 40.76585026502592 11.735974283347536 4.67447608453344 0 0 0
594 1 43.450936460860916 13.213685083138087 4.655044050368681 0 0 0
595 1 41.63957926773496 13.349351260534572 6.9052613413396 0 0 0
596 1 44.33586199007884 11.853035593857479 6.916712236087894 0 0 0
597 1 45.90241797502539 11.84675683802374 4.482812635330829 0 0 0
599 1 46.88384882949619 13.241875795856924 6.963034498682185 0 0 0
598 1 48.52818934979264 13.220845217601067 4.5679356148716606 0 0 0
600 1 49.43484373392815 11.833694983735967 6.874819918297488 0 0 0
641 1 -0.006193922065537552 17.675102840221918 4.710534045208643 0 0 0
601 1 0.01609585780045973 14.708597580963964 4.680425934913392 0 0 0
602 1 2.50889054137064 16.229143032025696 4.615816591573631 0 0 0
603 1 0.7873948702580044 16.22608766728218 6.929860290538537 0 0 0
644 1 3.336022407708294 17.812981890853926 6.864976257322075 0 0 0
645 1 5.017677165463331 17.742664214014184 4.761558758356499 0 0 0
604 1 3.3941565083859095 14.776841947487135 6.94904549988348 0 0 0
605 1 5.096698459028052 14.745106503019803 4.62960585206831 0 0 0
607 1 5.884975771112731 16.245778771414614 6.917988734066531 0 0 0
648 1 8.447310837320483 17.774456643674682 7.035258312927152 0 0 0
649 1 10.280951230944785 17.720510627181085 4.78704948393981 0 0 0
606 1 7.613779542867471 16.352056973625686 4.719536216696049 0 0 0
608 1 8.507101154180507 14.667196368626595 6.986991045864317 0 0 0
609 1 10.173731650893002 14.94609027218726 4.622058822364858 0 0 0
652 1 13.630441343681545 17.487683009954587 6.974010091645124 0 0 0
610 1 12.725742924088584 16.1645536481509 4.7683769831226535 0 0 0
611 1 11.080651168126396 16.234418667327787 7.097664340086586 0 0 0
612 1 13.667073999319964 14.744867712291247 7.153398991596936 0 0 0
653 1 15.18340184254669 17.711620638472205 4.797177666619875 0 0 0
613 1 15.187465527656297 14.731709625861075 4.5715220298246315 0 0 0
615 1 16.305337905230523 16.13605491327845 6.979077798167252 0 0 0
656 1 18.732634088721394 17.650883523074015 7.034391367440442 0 0 0
614 1 17.773453378608966 16.330770101793668 4.714545305016439 0 0 0
616 1 18.853811062773993 14.75347764732396 6.9594305669254455 0 0 0
657 1 20.524308742878215 17.751022410242513 4.598165625334445 0 0 0
617 1 20.431022115011967 14.802336897327729 4.641717965249889 0 0 0
618 1 23.011671477678984 16.17725059558844 4.639834842370602 0 0 0
619 1 21.226626357091288 16.28460133156016 6.985563037008765 0 0 0
660 1 23.81580184317257 17.701961645568005 7.062264952310703 0 0 0
661 1 25.437229037695165 17.73653596325898 4.630977133218676 0 0 0
620 1 23.79004843993584 14.75228401209272 6.986268810654629 0 0 0
621 1 25.453859683770716 14.734484557812639 4.618900628406872 0 0 0
623 1 26.33086463308382 16.286924089569972 6.840396304839123 0 0 0
664 1 28.946481530243393 17.767228026889825 7.064141132050093 0 0 0
665 1 30.670025313373145 17.72763028077054 4.525639414208335 0 0 0
622 1 28.125623838151363 16.33799069743641 4.558432720519178 0 0 0
624 1 28.987367826908443 14.76502962069758 7.018843459689969 0 0 0
625 1 30.69920873997709 14.706110377802982 4.629064421505743 0 0 0
626 1 33.210223556675004 16.269803987678493 4.7578833222527495 0 0 0
627 1 31.51600360380657 16.16143360075891 6.953108959555432 0 0 0
668 1 34.060006075921564 17.730526331981622 7.036910530942211 0 0 0
669 1 35.95702016302418 17.777516513330895 4.573324043485116 0 0 0
628 1 34.01379408208555 14.67713327265696 7.121135777032522 0 0 0
629 1 35.794954822418006 14.876555982632965 4.678984505457103 0 0 0
631 1 36.63824089437162 16.369268945746704 6.968107236888886 0 0 0
672 1 39.310477157233606 17.74679690485206 7.1075391063128395 0 0 0
630 1 38.340307285726865 16.271123615900073 4.577562030371964 0 0 0
632 1 39.10093820652065 14.82968908129232 6.9767184881326845 0 0 0
673 1 40.82856532994184 17.70827650712394 4.690298440651844 0 0 0
676 1 44.29956038872355 17.685400484228225 7.115761851026248 0 0 0
633 1 40.86662650057882 14.755390888483225 4.610681776661604 0 0 0
634 1 43.436503953180534 16.307707493185596 4.66663169181237 0 0 0
635 1 41.76449113600471 16.27485482686663 7.047206156887521 0 0 0
636 1 44.2505590049995 14.693844849478005 6.899095370171614 0 0 0
677 1 45.99816136062647 17.738480063525465 4.759941071773204 0 0 0
637 1 46.03027883754166 14.602361088658627 4.614557888480236 0 0 0
639 1 46.87726043506706 16.186063148518762 7.0502925134561325 0 0 0
680 1 49.4581994371344 17.745135351156478 7.007062137908382 0 0 0
638 1 48.60758237294263 16.163619514852044 4.809134914118729 0 0 0
640 1 49.388412734615656 14.682257258624155 7.039468226925141 0 0 0
681 1 0.01694662124958557 20.59233586450464 4.636106335884416 0 0 0
642 1 2.5887786196793856 19.26124718159656 4.50241103728784 0 0 0
643 1 0.7948796647005485 19.17494043656366 6.959361345080738 0 0 0
684 1 3.2781391551564116 20.69629420280622 6.9314045303330705 0 0 0
685 1 5.129298780533192 20.67891806476692 4.6577396137259335 0 0 0
647 1 5.787072546809156 19.264986853935916 7.054641789899788 0 0 0
688 1 8.430301875688038 20.76277793480699 7.229438286627247 0 0 0
689 1 10.143208993969992 20.705553728860544 4.789103984764099 0 0 0
646 1 7.672262513182402 19.247646128840238 4.845509957166619 0 0 0
692 1 13.539669461525644 20.681618790206045 7.074605345867381 0 0 0
650 1 12.73034147183525 19.193010758065405 4.555543618479928 0 0 0
651 1 10.929702861515613 19.152043006532402 7.065175058375893 0 0 0
693 1 15.281256619426664 20.633299650229304 4.911813694948324 0 0 0
655 1 16.174484274673414 19.14026522913837 7.024807733144904 0 0 0
696 1 18.578313035047845 20.5532651973338 7.096973419824737 0 0 0
654 1 17.955214822971787 19.050027064902736 4.7125157503884 0 0 0
697 1 20.38808500081148 20.669417485969504 4.793180416040294 0 0 0
658 1 23.001587955178625 19.15834090529728 4.7078540196875736 0 0 0
659 1 21.399666196813893 19.246825830747383 6.977531564827141 0 0 0
700 1 24.01537317714627 20.74887655554201 6.90989357594497 0 0 0
701 1 25.66997078411589 20.543472678616872 4.632785789305072 0 0 0
663 1 26.42583873248892 19.23074903103678 7.071687626754193 0 0 0
704 1 29.051093579366878 20.58917470833108 6.984405350616192 0 0 0
662 1 28.178070129784167 19.125558737228012 4.648336472267585 0 0 0
705 1 30.74313566475302 20.58349680015189 4.71151187769553 0 0 0
666 1 33.18861465985793 19.10887590975392 4.642235164335951 0 0 0
667 1 31.552086308485915 19.142389680408904 7.003933571878437 0 0 0
671 1 36.70520870211877 19.109760549405543 7.123065500997837 0 0 0
708 1 34.141489277648105 20.606099077654562 7.029671712611342 0 0 0
709 1 35.789301536352085 20.669684668300555 4.720223398035742 0 0 0
670 1 38.274282818569446 19.096374288412456 4.739049572895591 0 0 0
712 1 39.33814897504922 20.613186742753008 7.001952002795816 0 0 0
674 1 43.53469288838549 19.283680737414734 4.745388912352467 0 0 0
675 1 41.84104118188358 19.125437863705095 7.262427658997979 0 0 0
713 1 40.908552459320546 20.517349605850207 4.769654898033455 0 0 0
716 1 44.306042529535844 20.616165419407217 7.150951598043779 0 0 0
679 1 46.80313449540186 19.236226398838895 6.979975325919479 0 0 0
717 1 46.007523226168814 20.71720112907284 4.58831400072485 0 0 0
678 1 48.5559066373539 19.124826730356546 4.663450476162629 0 0 0
720 1 49.5240714137809 20.76542334672061 7.049580631307783 0 0 0
682 1 2.5223077437933905 22.216682857584935 4.603546213203402 0 0 0
683 1 0.6284518747584729 22.170941465612998 6.962551020759326 0 0 0
721 1 51.09401749784802 23.629707288716858 4.5918108562224536 -1 0 0
722 1 2.65339164886944 24.97676655501916 4.5795995609333024 0 0 0
723 1 0.8295047412695764 25.251659477674963 6.97614746161217 0 0 0
687 1 6.006865362814795 22.19490167577049 7.021797259781488 0 0 0
724 1 3.3302264005253512 23.66932122969648 6.973119488236977 0 0 0
725 1 5.048592689834505 23.508397964324118 4.713540903824693 0 0 0
727 1 5.857644163193149 25.21283305090123 6.998942003472911 0 0 0
686 1 7.658145685445877 22.237506378385206 4.692568534186421 0 0 0
726 1 7.5968024963679595 25.06627161581892 4.61082763145826 0 0 0
728 1 8.5636170316244 23.66537085793709 6.910206809516383 0 0 0
729 1 10.240559177218154 23.588758458746973 4.669861744625761 0 0 0
690 1 12.635005662563415 22.140717163252745 4.714466698847044 0 0 0
691 1 11.058800942277683 22.098416667305422 7.104577384781067 0 0 0
730 1 12.696685508644007 25.14710667216641 4.652888877935406 0 0 0
731 1 11.11855680946763 25.187083705915768 6.945149362965271 0 0 0
732 1 13.612696392127276 23.73838442543166 6.971335518302676 0 0 0
695 1 16.109180591028636 22.173708267382736 7.079642534520351 0 0 0
733 1 15.281838247040016 23.527765189914895 4.774349962794599 0 0 0
735 1 16.113278403790805 25.07953657103051 7.017244208441668 0 0 0
694 1 17.91966375185626 22.03537339621994 4.737666378384483 0 0 0
734 1 17.728265668230655 24.997608700580344 4.635980539471741 0 0 0
736 1 18.711726458520378 23.55366878948999 6.9113681253150885 0 0 0
698 1 23.058416756423952 22.041007074182872 4.579823799928795 0 0 0
699 1 21.299795550832044 22.086325514310325 6.950999618857775 0 0 0
737 1 20.444713720214637 23.572796486610677 4.571491170961756 0 0 0
738 1 22.965745829596127 25.05057095129694 4.6656780468671455 0 0 0
739 1 21.305832538759024 25.13684577712072 6.9107519537842075 0 0 0
703 1 26.591623248871898 22.210429870323992 6.966867609968985 0 0 0
740 1 23.79398459760824 23.609820461263197 6.914991355099592 0 0 0
741 1 25.602324710348288 23.605456285596908 4.668643163302471 0 0 0
743 1 26.412687238732975 25.170646468811277 7.099115812701395 0 0 0
702 1 28.092428420284584 22.093076087296133 4.611628016669261 0 0 0
742 1 28.185244221828444 25.094926689499296 4.763101666826154 0 0 0
744 1 29.033077025654144 23.53297261436566 6.949477452193146 0 0 0
745 1 30.723044303796982 23.61782405433334 4.792197505994982 0 0 0
706 1 33.253490232680946 22.136131462008585 4.735924452884467 0 0 0
707 1 31.491298205366483 22.17067750148746 7.053108461180917 0 0 0
746 1 33.287376258360254 25.145831177426032 4.6862940265364585 0 0 0
747 1 31.476435682396804 25.151246884324387 7.012599425626208 0 0 0
711 1 36.69021657482308 21.970873888333692 7.169753355116227 0 0 0
748 1 34.11205897535345 23.458062569778384 6.996651024333945 0 0 0
749 1 35.82004829790614 23.55099232117908 4.688554292358385 0 0 0
751 1 36.61419512028753 24.89520943959178 7.015744992875113 0 0 0
710 1 38.36004575870527 22.07986189404577 4.782507100979556 0 0 0
750 1 38.22822467145939 25.060816474689297 4.666528582039678 0 0 0
752 1 39.244607513672875 23.44159879216206 7.104218701559388 0 0 0
714 1 43.518506316844196 22.209110480274816 4.677319158184158 0 0 0
715 1 41.76279857357464 22.02779237973494 7.223127745545007 0 0 0
753 1 40.92511980177704 23.642635978662724 4.763354172477498 0 0 0
754 1 43.47847929706545 25.13515520404166 4.655466675131752 0 0 0
755 1 41.91567823499675 25.012848428721597 7.040600633047181 0 0 0
756 1 44.34253875189134 23.649153898858437 7.051894792713364 0 0 0
719 1 46.80688887750192 22.19778216503707 6.998539473014473 0 0 0
757 1 46.10598511715871 23.61811525967829 4.82071721463004 0 0 0
759 1 46.83523050288399 25.10627964070531 7.103950136266395 0 0 0
718 1 48.52853634774118 21.968595480043888 4.706838741151418 0 0 0
758 1 48.53794011406369 25.098043103656487 4.593535519535995 0 0 0
760 1 49.292353096086615 23.623863484406158 7.052707059053594 0 0 0
761 1 -0.014220526312297047 26.592029992879908 4.701231020292309 0 0 0
762 1 2.634471002213232 28.068305887943495 4.589732033599002 0 0 0
763 1 0.8136459973973529 28.19500253200654 6.945101340328533 0 0 0
764 1 3.2657989561205545 26.518392034909212 6.971278639748888 0 0 0
765 1 5.056864042624252 26.602242024581834 4.527476372903364 0 0 0
767 1 5.8162015878651765 28.03308845802711 7.026194363757829 0 0 0
769 1 10.14213051720727 26.665996693587587 4.64169526443591 0 0 0
766 1 7.720346774780104 28.104154930084405 4.568579129598799 0 0 0
768 1 8.49215328617484 26.63257169491913 7.0074846446572785 0 0 0
770 1 12.799886480342519 28.144858386096153 4.638764486272881 0 0 0
771 1 11.123813362954905 28.175046625395083 6.962051905840083 0 0 0
772 1 13.727553477242667 26.779657379362646 7.093419517370576 0 0 0
773 1 15.297821193592778 26.44190174575106 4.66681259871575 0 0 0
775 1 16.239144361199592 27.98975792484149 6.921774654072247 0 0 0
774 1 17.884843621730706 27.94905285549666 4.609970214725044 0 0 0
776 1 18.694463638265997 26.560457095808786 6.894915129060401 0 0 0
777 1 20.495215213872882 26.58594242800919 4.647631708645568 0 0 0
778 1 23.025824085048075 28.00366058407183 4.557808678807955 0 0 0
779 1 21.26356691593744 28.06807459744997 6.87542175563374 0 0 0
780 1 23.79384689774611 26.544120369157966 7.004772702807892 0 0 0
781 1 25.57279060631855 26.514096005154997 4.656615448706536 0 0 0
783 1 26.3599277080038 28.074431118720646 7.026577089142678 0 0 0
782 1 28.185536890777502 28.03713927667136 4.691832127207792 0 0 0
784 1 28.963101208016745 26.61267142807793 6.964189220011957 0 0 0
785 1 30.682165977887035 26.563967632804882 4.591070843677448 0 0 0
786 1 33.27368007294777 27.997783467611434 4.680087595043676 0 0 0
787 1 31.558131798546547 28.072883141143535 6.9389558490609895 0 0 0
788 1 34.12566100211993 26.639984437223063 6.918599199202288 0 0 0
789 1 35.798302369209395 26.49153817722805 4.594148659416269 0 0 0
791 1 36.637295262887434 28.033983358122647 7.032652620126388 0 0 0
790 1 38.48952377843007 28.142125896859298 4.7154210065477145 0 0 0
792 1 39.220393009276734 26.462871663411477 6.956937116361772 0 0 0
793 1 40.839865719508495 26.455008058717254 4.66328234857584 0 0 0
794 1 43.43173511111985 28.016113044743022 4.7201895238760025 0 0 0
795 1 41.77145632263655 28.047303985226286 7.029511619955675 0 0 0
796 1 44.33982219045859 26.50914659345976 6.942893256037307 0 0 0
797 1 46.04166471240572 26.51756141681748 4.561331479475839 0 0 0
799 1 47.020487171953576 28.042916000845793 6.879092589807346 0 0 0
798 1 48.58278777217599 28.06126397945028 4.556414346185832 0 0 0
800 1 49.365082397951255 26.631762216073156 6.900000349643038 0 0 0
841 1 -0.01729299845158517 2.9377745445428416 9.233052889828345 0 0 0
801 1 -0.023232457973135882 0.018627149327442735 9.308042082350802 0 0 0
802 1 2.4893903622172853 1.2743068001696414 9.407660357231618 0 0 0
845 1 5.022466402348063 2.7619397235036565 9.294877113334612 0 0 0
805 1 5.062244246656768 29.407100524501157 9.46487342687399 0 -1 0
849 1 10.114908410036485 2.8244529739710407 9.294631847982364 0 0 0
806 1 7.628647572729219 1.4390205098991156 9.479951625449221 0 0 0
809 1 10.211047752227612 29.491419230273536 9.398663565375122 0 -1 0
810 1 12.791253865054527 1.4325736248216714 9.32015808610618 0 0 0
853 1 15.266255865968601 3.1435265870775915 9.294904832239151 0 0 0
813 1 15.208109985923867 29.32209913098387 9.246267357214927 0 -1 0
814 1 17.76546400861412 1.3119192440090752 9.321260809163388 0 0 0
857 1 20.21006852019107 2.6808653325837866 9.379855835686142 0 0 0
817 1 20.411732073984563 29.489196625646212 9.287741907148238 0 -1 0
818 1 23.00290416292974 1.455329362288568 9.26569087257491 0 0 0
861 1 25.638900786279887 2.8653896653729927 9.333662232686686 0 0 0
821 1 25.454486844015655 29.504897609944955 9.316903168822188 0 -1 0
822 1 28.009907997859447 1.5191980353787609 9.294132890934415 0 0 0
825 1 30.623964414450878 0.07315626128963071 9.273063446476591 0 0 0
865 1 30.653070088266233 3.016129348724592 9.2438744954738 0 0 0
826 1 33.09945745083962 1.525940314783391 9.36097458282945 0 0 0
829 1 35.65040182729756 0.007920855291800616 9.24838113126664 0 0 0
869 1 35.77160165177014 2.818708731023215 9.226300025230476 0 0 0
830 1 38.2739072574761 1.5145885292425425 9.242322171462833 0 0 0
833 1 40.93986482832483 29.480227841725135 9.539663561880793 0 -1 0
834 1 43.367822513874074 1.4104063593016025 9.460440251318886 0 0 0
873 1 40.84825872142227 2.835004265189714 9.395466412214013 0 0 0
837 1 46.078943344267444 29.275496157820616 9.33405018512988 0 -1 0
877 1 45.96342529521543 2.889301737954202 9.331434466576498 0 0 0
838 1 48.62569527536765 1.3528521676917307 9.274257624570604 0 0 0
842 1 2.404141998952007 4.370751069994185 9.397378590581182 0 0 0
881 1 50.96956355344558 5.8498059343521644 9.303788110303664 -1 0 0
885 1 5.03582469864955 5.8800956795449375 9.318198563159164 0 0 0
846 1 7.543761758532185 4.368800929694657 9.377571047796053 0 0 0
889 1 10.129524223100663 5.910255814459037 9.309995625945325 0 0 0
850 1 12.658738711514793 4.369955380571964 9.301080414201587 0 0 0
893 1 15.324603459123662 5.947702612458533 9.243411802966238 0 0 0
854 1 17.859014442286224 4.413612428809184 9.217213916808268 0 0 0
897 1 20.442731326377068 5.836659864191927 9.33339926435252 0 0 0
858 1 22.990763687888077 4.351281442045499 9.352894184724954 0 0 0
901 1 25.53115445193415 5.954975552349857 9.264415393657135 0 0 0
905 1 30.598966856461615 5.841029911673355 9.325387279208332 0 0 0
862 1 28.212043033603138 4.369495054349246 9.409198876911626 0 0 0
866 1 33.17772156898177 4.393909754034147 9.289872370655157 0 0 0
909 1 35.86557254431574 5.933653518565533 9.181017735474972 0 0 0
870 1 38.30373222241313 4.437428504613282 9.347513454995186 0 0 0
913 1 40.90100606949832 5.8440016069577405 9.277370833848266 0 0 0
874 1 43.38679649470427 4.3489439638414655 9.297031825104094 0 0 0
917 1 45.969371906117445 5.8590705442061335 9.29476578260229 0 0 0
878 1 48.539149490114795 4.406372096363524 9.390958489680225 0 0 0
921 1 -0.0030229052211584242 8.864335617012744 9.387832003088619 0 0 0
922 1 2.478754813326675 10.269843670167957 9.343884956125885 0 0 0
882 1 2.451854507279545 7.264776541279495 9.32577531604768 0 0 0
925 1 4.976417130368255 8.787517247633277 9.219849815091568 0 0 0
926 1 7.465738325325854 10.389523764996051 9.293169391490949 0 0 0
929 1 10.095371695256741 8.7588611549904 9.231251852568999 0 0 0
886 1 7.538952991482782 7.3579956778147935 9.22824569850663 0 0 0
930 1 12.839699580692546 10.320297713091655 9.262750112452734 0 0 0
890 1 12.800814278626884 7.316461902892676 9.2541041989118 0 0 0
933 1 15.327031305872872 8.795666494089236 9.294700830604842 0 0 0
934 1 17.832092279126474 10.254049104429985 9.157435099321972 0 0 0
894 1 17.95814848563985 7.331253157774512 9.292467446017016 0 0 0
898 1 23.07859795441893 7.510123113814233 9.318126277119704 0 0 0
937 1 20.476147221206663 8.900625225314378 9.136830925114483 0 0 0
938 1 22.98701109982661 10.367803671166389 9.200030224992123 0 0 0
941 1 25.636603487953675 8.829806634137023 9.443026479406633 0 0 0
902 1 28.08737208638397 7.385751054098603 9.400360170609877 0 0 0
942 1 28.17134393369337 10.281276695460484 9.23862149740309 0 0 0
945 1 30.582987591966045 8.834437305200723 9.433101089638257 0 0 0
906 1 33.168967421755625 7.418098660215165 9.370449510664702 0 0 0
946 1 33.17999726587156 10.291890503501469 9.279846240441774 0 0 0
949 1 35.683884265386936 8.814711816023522 9.369237096876336 0 0 0
910 1 38.2774306180081 7.35175748584722 9.301167399059361 0 0 0
950 1 38.283483785692724 10.220355695001764 9.321697077461389 0 0 0
914 1 43.33081611321121 7.49869499644608 9.320559884100948 0 0 0
953 1 40.86298180401788 8.835303788241685 9.256241435253099 0 0 0
954 1 43.45930479404393 10.372039543142124 9.313245618327606 0 0 0
957 1 45.96567302716862 8.879335027772818 9.47077897719409 0 0 0
918 1 48.32803437427495 7.295230222061362 9.450398602513832 0 0 0
958 1 48.551644289763786 10.455961068486813 9.322932226934666 0 0 0
961 1 51.13529550143306 11.80434782186962 9.261857764976035 -1 0 0
962 1 2.5146879123212535 13.168796125788655 9.272565157225076 0 0 0
965 1 4.957609213083411 11.789392581132923 9.236575340562112 0 0 0
966 1 7.6880020870966135 13.202079753074857 9.263754411215425 0 0 0
969 1 10.11529479161893 11.70473253046666 9.271312993733323 0 0 0
970 1 12.696833613226072 13.242433775110662 9.374408479927009 0 0 0
973 1 15.423094958761041 11.886817716388082 9.337153757477479 0 0 0
974 1 17.900875558558457 13.136289502798602 9.332490550270107 0 0 0
977 1 20.43134383531059 11.805973594986092 9.301320458508703 0 0 0
978 1 23.038176128163986 13.256312539340827 9.35170780832739 0 0 0
981 1 25.641150222046676 11.714632382776895 9.395538771602746 0 0 0
982 1 28.25011455554019 13.327627705956697 9.287822554882522 0 0 0
985 1 30.66852630323395 11.793248497149124 9.28961385400997 0 0 0
986 1 33.258136461444764 13.173849904753384 9.412834774748978 0 0 0
989 1 35.8028640277895 11.704685441959963 9.360094220097986 0 0 0
990 1 38.37468140495207 13.272097805978895 9.369594670819437 0 0 0
993 1 40.95740073425482 11.874454372306309 9.29627985893951 0 0 0
994 1 43.42101928786397 13.271511691142786 9.180198004470336 0 0 0
997 1 46.019685730691265 11.6860863795413 9.411113785227993 0 0 0
998 1 48.56213465522366 13.18303681127483 9.292468828004333 0 0 0
1041 1 0.07074667062533099 17.78228685230527 9.319999990197635 0 0 0
1001 1 0.04610290834925178 14.724820180274794 9.291885202114935 0 0 0
1002 1 2.4561882907735364 16.19978763007846 9.396440610218706 0 0 0
1045 1 5.122955727703336 17.659855503803982 9.229403860687485 0 0 0
1005 1 5.134834292072764 14.599326597568856 9.23118013400046 0 0 0
1049 1 10.168315084170352 17.68080776837376 9.316423395060507 0 0 0
1006 1 7.576743466055427 16.038491648287575 9.350888417583583 0 0 0
1009 1 10.211712606438187 14.728803373206874 9.405552540380624 0 0 0
1010 1 12.678406523378573 16.228111629717837 9.475551866050566 0 0 0
1053 1 15.416245607417425 17.707997001064903 9.240132155193573 0 0 0
1013 1 15.3370296905917 14.694304976010114 9.401846673085435 0 0 0
1014 1 17.859025981495098 16.221168445401453 9.369702865956397 0 0 0
1057 1 20.335084465411505 17.760633676877738 9.289601162178133 0 0 0
1017 1 20.32518093780089 14.749562714944021 9.400344825364645 0 0 0
1018 1 22.906063225109285 16.180482729766858 9.33712040873577 0 0 0
1061 1 25.60136978481321 17.737743255386896 9.326467776179745 0 0 0
1021 1 25.434119446249003 14.760107574285918 9.185233734955046 0 0 0
1025 1 30.549084122306237 14.795311899753955 9.288957818838076 0 0 0
1065 1 30.67637772675815 17.7033721310249 9.458488094779097 0 0 0
1022 1 28.02211641183284 16.27205841174677 9.256436713101435 0 0 0
1026 1 33.23817669802547 16.23339249419808 9.29585055456691 0 0 0
1029 1 35.825754697915826 14.729805857106689 9.259899504005462 0 0 0
1069 1 35.76250577560768 17.673410756301067 9.355883798058159 0 0 0
1030 1 38.33848137583247 16.20456179294967 9.298009912038038 0 0 0
1033 1 40.94986327059718 14.744407501357006 9.441020396062559 0 0 0
1034 1 43.47653351765935 16.123346323202874 9.390881423772667 0 0 0
1073 1 40.98548265414155 17.719730441695454 9.491485198215116 0 0 0
1037 1 46.05911189249123 14.78000599597828 9.358869227274178 0 0 0
1077 1 46.174210217918315 17.712016358454164 9.375396094823298 0 0 0
1038 1 48.61184817676339 16.368984050357078 9.41193632763757 0 0 0
1042 1 2.551194529077684 19.210021274619884 9.414217674147396 0 0 0
1081 1 -0.03836768205391013 20.616290030476144 9.345331908734558 0 0 0
1085 1 4.98692443990726 20.683845691562126 9.248069350889882 0 0 0
1046 1 7.600481898631119 19.10811087767653 9.394264110301796 0 0 0
1089 1 10.174989254553555 20.649761575635353 9.400245606149362 0 0 0
1050 1 12.65216951190987 19.16769562357662 9.411634391707016 0 0 0
1093 1 15.269691607612225 20.765289992047798 9.331464766532283 0 0 0
1054 1 17.869102870223948 19.211010380168062 9.239087892710293 0 0 0
1058 1 23.00550887616977 19.316399335786222 9.30660668466337 0 0 0
1097 1 20.525781637073376 20.722144351707016 9.290207118422057 0 0 0
1101 1 25.453913519141302 20.66557628400789 9.262160932988348 0 0 0
1062 1 28.183112460913268 19.240577430489417 9.381374170218507 0 0 0
1105 1 30.65269644836283 20.683926198768695 9.344037108537263 0 0 0
1066 1 33.15162861026347 19.18616031203336 9.466374354696287 0 0 0
1109 1 35.78995525118958 20.58520055935479 9.351045076690916 0 0 0
1070 1 38.31281723684528 19.127068852554466 9.361456187256378 0 0 0
1074 1 43.50674346293549 19.027495994713263 9.524406723255161 0 0 0
1113 1 40.767266318357045 20.571555665279654 9.537508277206515 0 0 0
1117 1 46.07268904680909 20.752805915544094 9.397732577844883 0 0 0
1078 1 48.58717668613737 19.391397660824317 9.224870161330827 0 0 0
1082 1 2.420320307158566 22.132175374843854 9.216462130509356 0 0 0
1121 1 51.10357397449151 23.55173942275593 9.374483968392843 -1 0 0
1122 1 2.444990542474517 25.088918728736076 9.44502804276876 0 0 0
1125 1 5.029314327844594 23.621128800467055 9.377090339536034 0 0 0
1086 1 7.613562490548228 22.255838450490444 9.546794389030634 0 0 0
1126 1 7.569931615750545 25.102997049422328 9.468326221642643 0 0 0
1129 1 10.0998651898635 23.633433515882246 9.392757101936352 0 0 0
1090 1 12.720711419234673 22.119706156974885 9.44417644443555 0 0 0
1130 1 12.735462150416057 25.247892893376886 9.332764908091445 0 0 0
1133 1 15.341202806059048 23.569766475589972 9.317031307907788 0 0 0
1094 1 17.83230259261031 22.084637340543125 9.389173660991386 0 0 0
1134 1 18.009494007973842 25.05362121661348 9.315993577774814 0 0 0
1098 1 23.1004222109425 22.092815876286387 9.182319804638277 0 0 0
1137 1 20.493065029826436 23.55945011586349 9.190458181497503 0 0 0
1138 1 23.067411284494824 25.06759307224513 9.226400589022852 0 0 0
1141 1 25.564342071277977 23.605031095224803 9.416517744610127 0 0 0
1102 1 28.072733225926203 22.10922322562198 9.269754621509117 0 0 0
1142 1 28.061271254832764 25.22975217032272 9.362308247195225 0 0 0
1145 1 30.58192578765771 23.583159893706068 9.250632620217301 0 0 0
1106 1 33.17508932887648 22.129200198149256 9.33220768506639 0 0 0
1146 1 33.136800027259625 25.08788553227167 9.379084209875344 0 0 0
1149 1 35.63763732046611 23.559435001842687 9.387857352058996 0 0 0
1110 1 38.39587567491401 22.049214318763845 9.428429840197264 0 0 0
1150 1 38.24525769213231 25.103251020656927 9.417247248195613 0 0 0
1153 1 40.93268162964594 23.62977002128357 9.479216861072754 0 0 0
1154 1 43.60932516197603 25.101819737751946 9.416234811953464 0 0 0
1114 1 43.51198833251763 22.147670910301706 9.456205803819254 0 0 0
1157 1 46.075871255900694 23.69082323989099 9.43802382525202 0 0 0
1158 1 48.713172560180325 25.06473781419499 9.311114103296571 0 0 0
1118 1 48.63376698053598 22.110856932960203 9.350548096560495 0 0 0
1161 1 51.102527971047834 26.544716227581155 9.390508448286145 -1 0 0
1162 1 2.4218542540928585 28.003036015045247 9.365436199959854 0 0 0
1165 1 4.994252536637936 26.54322787264867 9.341963531685394 0 0 0
1166 1 7.537009174731127 28.094540408708113 9.244569807520692 0 0 0
1169 1 10.3015670828304 26.558764666058572 9.3561703757717 0 0 0
1170 1 12.803315676372504 28.02450879250061 9.405891942755163 0 0 0
1173 1 15.46415404990196 26.46535506976374 9.2432354690354 0 0 0
1174 1 17.84440089512689 27.994368332465534 9.339714230299364 0 0 0
1177 1 20.547461531220407 26.55711399288265 9.347067117901098 0 0 0
1178 1 22.947712829126615 27.99196643912711 9.171655489542765 0 0 0
1181 1 25.45362996884901 26.550806431194502 9.38710789263317 0 0 0
1182 1 28.037175318419308 28.127328327228412 9.312770601369426 0 0 0
1185 1 30.559391179351156 26.62402560680517 9.319838839396834 0 0 0
1186 1 33.249657478959435 28.14991092061257 9.338473726702864 0 0 0
1189 1 35.77034232475408 26.44052706845941 9.354948458195336 0 0 0
1190 1 38.325730480910636 27.927156886747248 9.272490698791827 0 0 0
1193 1 40.940057547590186 26.48736033788635 9.333715935082095 0 0 0
1194 1 43.54813173436608 27.86621875353596 9.341807546744013 0 0 0
1197 1 46.10113171071056 26.713902812020237 9.291006175752933 0 0 0
1198 1 48.64665160312485 28.047409406313 9.312402755866437 0 0 0
1201 1 -0.015304012211135157 29.472511990309773 13.99385432767587 0 -1 0
1202 1 2.513016592784043 1.3371804592925112 14.055512204363886 0 0 0
1241 1 -0.015613216920833221 2.753043467981628 13.93285079472554 0 0 0
803 1 0.7819662074503482 1.3704424013160093 11.61120663400557 0 0 0
1205 1 5.149517876915807 0.01119340597107385 13.979271866856822 0 0 0
844 1 3.429710680338426 2.767254508905491 11.687014339377997 0 0 0
1245 1 5.151508390879131 2.9041832186934835 14.012269586071866 0 0 0
804 1 3.426955586604681 29.420161825927263 11.642036660413076 0 -1 0
807 1 5.986412719133942 1.3636087069041318 11.707340613459143 0 0 0
1206 1 7.728707555936063 1.2346265595001051 14.032109870189462 0 0 0
1209 1 10.096425821398425 29.348465300783865 14.042392565951229 0 -1 0
848 1 8.549240867256113 2.817914390483587 11.808871039266274 0 0 0
808 1 8.413042021325271 29.47559398409993 11.61206486947384 0 -1 0
1249 1 10.268294079128616 2.8862861987295534 14.081068429336709 0 0 0
1210 1 12.8574050809869 1.4880749451902398 13.976733142780931 0 0 0
852 1 13.59321434000126 2.7979467253256285 11.565174519934354 0 0 0
811 1 11.061539262131026 1.302157270451185 11.629911623089892 0 0 0
812 1 13.63041903547892 29.485714985491786 11.684587140007428 0 -1 0
1213 1 15.32643593531877 29.53263280499259 14.09192486858531 0 -1 0
815 1 16.212479452432177 1.3633035685584658 11.685464412470363 0 0 0
1253 1 15.417837763592598 2.871719357207558 13.889874251901585 0 0 0
1214 1 17.865274698482082 1.416265233662375 13.963378106731705 0 0 0
856 1 18.693272982994152 2.8072588387270905 11.690838323505137 0 0 0
816 1 18.697116536068755 29.50201189511712 11.749416612682653 0 -1 0
1217 1 20.600465416037235 29.450585344225452 13.947720662687193 0 -1 0
1218 1 22.925689522182328 1.4836585336958223 13.948302575836017 0 0 0
819 1 21.342172241434366 1.3134562575937099 11.622666831794188 0 0 0
1257 1 20.388851172602585 2.8705448485991316 14.06579027595589 0 0 0
860 1 23.811963128680002 2.913446096662019 11.66706058080853 0 0 0
1221 1 25.477761348524734 -0.009202788987615937 14.17336479751731 0 0 0
820 1 23.7885071642292 29.51062409435203 11.598894611578762 0 -1 0
1261 1 25.426439878016964 2.958618940779288 13.947773333381216 0 0 0
823 1 26.333736021051347 1.5089141112881286 11.623316060673279 0 0 0
864 1 28.95008678483685 2.9031521211044575 11.727829327252289 0 0 0
1222 1 28.102510286866057 1.5397637017771644 14.044223307985245 0 0 0
1225 1 30.586017502392608 29.46349695224285 13.950965822756649 0 -1 0
824 1 28.93666964195486 29.48760336772708 11.70730580330281 0 -1 0
1265 1 30.644805392405733 3.0177415381674333 14.009852601639547 0 0 0
1226 1 33.290590340260025 1.4697605513150342 14.002353796603243 0 0 0
827 1 31.446758775650196 1.409781198435038 11.744927505057525 0 0 0
1229 1 35.82945126785248 -0.016786131990035397 14.03116367713696 0 0 0
828 1 34.104690751295806 0.012723641259976645 11.689268733246768 0 0 0
1269 1 35.748765521311356 2.859210157871274 13.90362387462504 0 0 0
831 1 36.55464938498416 1.4444248697891604 11.493296526149098 0 0 0
868 1 34.01210456505248 2.9374825892020278 11.536386610778294 0 0 0
1230 1 38.430734269987624 1.627233305238737 14.043899695206834 0 0 0
832 1 39.1350728075446 0.022092028608240458 11.655329126280503 0 0 0
872 1 39.16814110038389 2.970045127914579 11.676217893147463 0 0 0
835 1 41.726137836233505 1.493754077442769 11.720671995969507 0 0 0
836 1 44.36622504454061 29.463055203852342 11.777515452306524 0 -1 0
1233 1 40.8799177705571 -0.005344509138280603 14.134728892509438 0 0 0
1234 1 43.44667236542577 1.4199188490671308 14.016915073990427 0 0 0
1273 1 41.042869869280366 2.8687413111527618 14.05342700503151 0 0 0
876 1 44.36149720732848 2.8990857234621963 11.723305464013164 0 0 0
839 1 46.97153280134444 1.3227494341322386 11.69800258782165 0 0 0
1237 1 46.02032639571516 29.427260039694428 14.133375854838889 0 -1 0
1277 1 46.1721789306833 2.79053478933987 14.155599810376211 0 0 0
840 1 49.51202766029225 29.332348059329167 11.56635188119374 0 -1 0
1238 1 48.716641440856776 1.232641025322971 13.927522165921504 0 0 0
880 1 49.5648672295892 2.761014594610465 11.663001200359156 0 0 0
1281 1 51.13240814538579 5.92606474454775 14.037029775125765 -1 0 0
843 1 0.6776538546410805 4.446958181079744 11.650438938963086 0 0 0
1242 1 2.516867816612358 4.161270664505154 13.897685680343615 0 0 0
1285 1 5.0255916187727 5.799047347102568 13.931410166768424 0 0 0
847 1 6.051147519404981 4.386899546304632 11.59550085386842 0 0 0
884 1 3.4360506457721467 5.654576013520254 11.55879501999992 0 0 0
1289 1 10.16747925610154 5.886293441907268 14.095744190916973 0 0 0
1246 1 7.625496223899275 4.300526838489956 14.078651819213277 0 0 0
888 1 8.552654936244831 5.9021595125574855 11.625131854799237 0 0 0
851 1 11.11321118498008 4.320098645684824 11.624738706397311 0 0 0
1250 1 12.78869682717928 4.315392151142524 14.022985077337088 0 0 0
892 1 13.540313689136198 5.726411705457228 11.632337448389336 0 0 0
1293 1 15.302249660286318 5.8524777707655256 13.75406407409465 0 0 0
855 1 16.286310498498494 4.385599953848547 11.509561319784867 0 0 0
1254 1 17.8606389936922 4.353750837939519 13.9725425370215 0 0 0
896 1 18.64038353882552 5.863460126240472 11.682707631067728 0 0 0
1297 1 20.449413801756673 5.930336942003115 13.979472673883663 0 0 0
859 1 21.228509210442827 4.372503840628614 11.545596897130912 0 0 0
1258 1 22.938343350568985 4.3158470682019585 14.0177841019197 0 0 0
1301 1 25.50215606605624 5.795051517020939 14.068091584027128 0 0 0
900 1 23.93731078191092 5.8673054288258 11.683870977972589 0 0 0
863 1 26.360250610361913 4.392153568393257 11.705662876328716 0 0 0
1305 1 30.630013582836177 5.8935798080807364 14.116489680562443 0 0 0
904 1 28.91977082042936 5.97362811218099 11.638224032913415 0 0 0
1262 1 28.063586913790175 4.4642167013317104 13.981966496106548 0 0 0
1266 1 33.25346221737519 4.429603560552468 14.058365297017055 0 0 0
867 1 31.579370917548882 4.388224790460326 11.832109067054471 0 0 0
1309 1 35.83199570171223 5.9914802492149875 14.036821468020891 0 0 0
908 1 34.16766401422005 5.948250543225866 11.655180506324486 0 0 0
871 1 36.665394736933465 4.268621143601982 11.576647339957633 0 0 0
912 1 39.163339903118796 5.8742485024950035 11.611046189590114 0 0 0
1270 1 38.36323287905098 4.355649839488887 13.996657970595583 0 0 0
916 1 44.153071274334934 5.797940679574841 11.622712172701508 0 0 0
1274 1 43.580266631311446 4.360341900565312 14.075291763384895 0 0 0
1313 1 40.96162611562981 5.902991696382811 13.991660934436048 0 0 0
875 1 41.76695365127841 4.3490939835333675 11.56740562964971 0 0 0
1317 1 46.06647961645608 5.835355881287412 14.05538489325334 0 0 0
879 1 46.83948417301339 4.385313309867139 11.664404811226373 0 0 0
920 1 49.370391146827586 5.812509531499434 11.759548458354518 0 0 0
1278 1 48.63552186928487 4.347380239850593 14.044768786305934 0 0 0
1282 1 2.660323147015726 7.262282258644193 13.966076622060092 0 0 0
923 1 0.8124874970901611 10.327363111024889 11.636831668874311 0 0 0
1321 1 51.146141588331346 8.849955528186412 13.867372830487009 -1 0 0
1322 1 2.6777071396773326 10.425776051762458 13.94977507898074 0 0 0
883 1 0.7727489501274419 7.256623475093025 11.552853723920583 0 0 0
924 1 3.430844023467308 8.9092785158261 11.650746169304448 0 0 0
927 1 5.902002335738682 10.276972882287875 11.645614473268955 0 0 0
1325 1 5.09801921938742 8.81008960058219 14.099787422972959 0 0 0
887 1 6.038407159060064 7.2372266321905165 11.560509963669274 0 0 0
1286 1 7.609102845811876 7.2366795123443834 13.975894663367884 0 0 0
928 1 8.45883248179183 8.893385316244393 11.629515661963048 0 0 0
1326 1 7.609543609639253 10.390787628827846 13.918877916028023 0 0 0
1329 1 10.20464827268745 8.882992969007839 14.033247352068233 0 0 0
1290 1 12.693129394590205 7.295438053344283 14.059564087514959 0 0 0
931 1 11.026427025321302 10.357023135008308 11.660608904453502 0 0 0
932 1 13.490370977508844 8.77748648013666 11.666436147326099 0 0 0
1330 1 12.802873154557597 10.408048464231795 14.062305913635056 0 0 0
891 1 11.067546836287152 7.329431745269091 11.684377698820423 0 0 0
935 1 16.07977472364831 10.186924411044663 11.625684825358858 0 0 0
1333 1 15.284149939113545 8.7677170962115 13.974094877482978 0 0 0
895 1 16.133875087891163 7.327658163113747 11.708807547650224 0 0 0
1294 1 17.99084430236774 7.3227997796790625 14.044183085022377 0 0 0
936 1 18.70708938133549 8.83583821591369 11.666021554849697 0 0 0
1334 1 17.854657909661753 10.27080443967668 13.97730894251029 0 0 0
1298 1 23.074792474736626 7.265923213559221 14.074459433603396 0 0 0
899 1 21.433446670511103 7.411372463705019 11.626770608884412 0 0 0
939 1 21.33674882649096 10.343710641363925 11.591859301519152 0 0 0
1337 1 20.457242162687983 8.79052441119335 13.905734456522836 0 0 0
1338 1 23.14352566212604 10.30149955474952 14.021772420824766 0 0 0
903 1 26.43794877627458 7.371043466317027 11.72712114583659 0 0 0
940 1 23.946658325431347 8.876301895953437 11.685547723029181 0 0 0
943 1 26.53231165508118 10.324993998150166 11.698409535862687 0 0 0
1341 1 25.52525818400378 8.958125911246722 14.057550009054694 0 0 0
1302 1 28.00710885237361 7.345705332571535 14.043011555526686 0 0 0
944 1 29.01090114521091 9.00631105654005 11.643876411123696 0 0 0
1345 1 30.800385398978868 8.796835603592598 14.06170086709686 0 0 0
1342 1 28.245310000354525 10.245587295865247 14.189037468012573 0 0 0
1306 1 33.2642640596693 7.309148319232581 14.104321043226763 0 0 0
907 1 31.49446547729179 7.428191898205243 11.787923492860488 0 0 0
947 1 31.43602198818181 10.317626986462342 11.700824695649585 0 0 0
1346 1 33.36351274977061 10.351093262466422 14.053015340465162 0 0 0
911 1 36.645132918051615 7.381160033571007 11.568627116620299 0 0 0
948 1 34.112031128437806 8.847977686213282 11.649010988805893 0 0 0
951 1 36.64229019566979 10.276479575674353 11.620557745990299 0 0 0
1349 1 35.883630277316385 8.869867510110671 14.033307534674998 0 0 0
1310 1 38.37826576003094 7.318960931746061 13.998317432347587 0 0 0
952 1 39.198436182144135 8.800438931613547 11.662563718631258 0 0 0
1350 1 38.30987478373797 10.336793940278639 13.896561996075409 0 0 0
915 1 41.79444133042563 7.312319085542277 11.5807204598437 0 0 0
955 1 41.632350481297905 10.435219753159569 11.69412619206441 0 0 0
956 1 44.136456107321976 8.869799227312344 11.618227887041927 0 0 0
1353 1 40.84205048198024 8.869872382826623 14.088500449927295 0 0 0
1354 1 43.33654482943096 10.399979721272373 14.053921943066193 0 0 0
1314 1 43.474385766346984 7.343056047970983 13.934182586054973 0 0 0
919 1 46.86633282549265 7.469445917543512 11.84263542403345 0 0 0
959 1 46.73644446034892 10.22134315986744 11.70770996234521 0 0 0
1357 1 45.94233014851069 8.803840737131722 14.058996063720528 0 0 0
960 1 49.45661971892126 8.790805035076033 11.553669469603392 0 0 0
1358 1 48.596980922995144 10.426509078103154 14.039795199863283 0 0 0
1318 1 48.63030935038687 7.405695741318373 14.018125190012727 0 0 0
963 1 0.9773814621847909 13.376307557304953 11.74975854432823 0 0 0
1361 1 -0.04746124758122605 11.929580338434747 13.990747876978688 0 0 0
1362 1 2.6311886317407858 13.169242735374798 14.001227169970928 0 0 0
964 1 3.388073811284497 11.75496001690245 11.526794074626048 0 0 0
1365 1 5.1095346316651975 11.728737565263089 13.892516065460025 0 0 0
967 1 5.898278204385562 13.160473582245583 11.582120833918125 0 0 0
968 1 8.550259896155955 11.762046129260183 11.58981070379955 0 0 0
1366 1 7.728869246387092 13.21143838457463 13.944118628150843 0 0 0
1369 1 10.061698135091973 11.810630945937532 13.843162796583517 0 0 0
971 1 10.961279044414198 13.281116406543733 11.703626649026447 0 0 0
1370 1 12.818841763488729 13.351343307912956 13.916217370230218 0 0 0
972 1 13.650210615910925 11.771072697898733 11.632921769218095 0 0 0
975 1 16.305598119110428 13.360383527620467 11.622865400125796 0 0 0
1373 1 15.357829692155768 11.818689349393926 13.925789518304217 0 0 0
976 1 18.63289019916704 11.750169307049573 11.536407385721578 0 0 0
1374 1 17.85423896392255 13.311430116976133 14.014199455166672 0 0 0
979 1 21.244991415158964 13.18128334986384 11.66786554099211 0 0 0
1377 1 20.524189679520443 11.755161818375377 14.008813639175326 0 0 0
1378 1 22.978979817178594 13.219796095822334 13.831140644281364 0 0 0
980 1 23.964280223724096 11.814356876593438 11.663023536173208 0 0 0
983 1 26.41399506821806 13.319222359415797 11.74854875328883 0 0 0
1381 1 25.488906706318577 11.769571791408397 13.996387048851375 0 0 0
984 1 28.959074112530935 11.833517053557951 11.709612187354702 0 0 0
1382 1 28.1777705919747 13.340149817372518 14.074888202485656 0 0 0
1385 1 30.671624270831618 11.839368049987689 14.166467001747643 0 0 0
987 1 31.593377591466254 13.25792592700852 11.63314486093757 0 0 0
1386 1 33.14416644291188 13.405840568342116 13.988791399509624 0 0 0
988 1 34.08542918696811 11.711976760130076 11.660942666607538 0 0 0
991 1 36.50646599577861 13.188749299885398 11.636306740964498 0 0 0
1389 1 35.75219932867002 11.794460779399268 14.158981786153422 0 0 0
992 1 39.19377583898104 11.774728554963021 11.69431402755864 0 0 0
1390 1 38.42631840984926 13.29017564476192 14.092484823597388 0 0 0
995 1 41.799815250520226 13.381682582997088 11.528079786694455 0 0 0
996 1 44.30607870810158 11.798305776441213 11.758678797635621 0 0 0
1393 1 40.80454793665908 11.889324369006236 14.036307325206746 0 0 0
1394 1 43.4903687861149 13.280296888764166 14.113459292436966 0 0 0
999 1 46.84007683067672 13.325716083400936 11.767742948066338 0 0 0
1397 1 46.0554744550206 11.87137527504322 13.978019083933992 0 0 0
1000 1 49.469911660553066 11.691135590696222 11.55967527639213 0 0 0
1398 1 48.67263443149359 13.371202827612093 13.935770051858878 0 0 0
1003 1 0.8154341629848331 16.278240097176003 11.623531429976213 0 0 0
1401 1 0.009362033301953995 14.769113884002705 13.901290150535836 0 0 0
1402 1 2.434443518249604 16.310226355962257 14.050480360109841 0 0 0
1441 1 -0.04407294763995613 17.606694869787475 14.13249971466951 0 0 0
1044 1 3.335964230954564 17.64655045010614 11.627647319572405 0 0 0
1004 1 3.420978411131084 14.808970215172804 11.594163977438424 0 0 0
1007 1 5.881521104586158 16.249034230638372 11.549568053308478 0 0 0
1405 1 5.10947314995446 14.76301697878597 13.955966282931522 0 0 0
1445 1 5.030035782493779 17.755468587374757 13.942620038409181 0 0 0
1048 1 8.313278903147888 17.67506599881426 11.657400498592596 0 0 0
1409 1 10.17135531647944 14.831719372129383 14.020751798909007 0 0 0
1008 1 8.408238243957802 14.625768633005274 11.709912332894016 0 0 0
1406 1 7.532150225747238 16.132980514739188 13.951222001702222 0 0 0
1449 1 10.201917114501596 17.622152586672613 13.901877371618596 0 0 0
1052 1 13.666410648003097 17.722950479190906 11.711963328659547 0 0 0
1410 1 12.719844973728708 16.22051771265147 13.993188897635328 0 0 0
1011 1 10.916942047962745 16.20661713166639 11.636181565502307 0 0 0
1012 1 13.652963423621676 14.64044207397671 11.703279443599738 0 0 0
1413 1 15.272414272401296 14.858419114281658 14.105593993576006 0 0 0
1015 1 16.290954089876227 16.284204429719438 11.712782398010383 0 0 0
1453 1 15.299037321280549 17.758192075398192 13.963708983559885 0 0 0
1056 1 18.795862158428438 17.683156504794773 11.750002434298564 0 0 0
1414 1 17.881251359747033 16.220403887835495 14.075255343307502 0 0 0
1016 1 18.784552917116983 14.77044506101086 11.62696406200596 0 0 0
1417 1 20.481118867724177 14.805736915489502 13.822575311073628 0 0 0
1418 1 23.087832618167468 16.201480078889617 14.020733843323223 0 0 0
1019 1 21.425056395427667 16.203144352686827 11.573241651031667 0 0 0
1457 1 20.47079891552958 17.675900062841954 14.021938887217159 0 0 0
1060 1 23.87760075109554 17.637003036271487 11.787778208981328 0 0 0
1421 1 25.594479785731775 14.832488320946533 14.028820063117134 0 0 0
1020 1 24.02119509851876 14.834342346901034 11.635647579412405 0 0 0
1023 1 26.52269143081852 16.165698008298584 11.468383103386257 0 0 0
1461 1 25.668757528865253 17.67692495367379 14.105819334655642 0 0 0
1064 1 29.007032905675864 17.673120634057533 11.793528006236999 0 0 0
1422 1 28.031526998447223 16.175638352009905 14.25742746526951 0 0 0
1425 1 30.77076429950196 14.808928527991307 13.981898245552264 0 0 0
1024 1 29.1631372056349 14.797611231807378 11.774995689358436 0 0 0
1465 1 30.525408330314495 17.658223298359538 14.08966781997736 0 0 0
1027 1 31.6163266981731 16.210552619820767 11.605486663702793 0 0 0
1426 1 33.329689866570305 16.31629869987163 14.015612714392102 0 0 0
1028 1 34.18119291021368 14.72658805132761 11.669129053341678 0 0 0
1031 1 36.72549364381598 16.25555466317102 11.609730594412843 0 0 0
1068 1 34.07218257438805 17.70085802086067 11.691784041798218 0 0 0
1429 1 35.81776100426798 14.732748613012971 14.029719229729926 0 0 0
1469 1 35.776781114861734 17.75775698765188 14.058290123030048 0 0 0
1032 1 39.27233539823425 14.77079483729115 11.854403664798204 0 0 0
1072 1 39.21374559316213 17.585953287726582 11.68596570492273 0 0 0
1430 1 38.16482057040788 16.2944994497958 14.020751782892054 0 0 0
1035 1 41.8232072677618 16.175594145573044 11.675010248144112 0 0 0
1036 1 44.32041300524557 14.838477726955142 11.642398851238237 0 0 0
1076 1 44.38015457817215 17.647054613208354 11.659475719308421 0 0 0
1433 1 40.863403977786675 14.765491337041487 14.105749463304573 0 0 0
1434 1 43.54631012354183 16.192579079710974 13.848614856848046 0 0 0
1473 1 40.94031639294607 17.636597576983732 13.917962594126207 0 0 0
1039 1 46.91373278730052 16.34678449840797 11.762916190652842 0 0 0
1437 1 46.11430686321603 14.829010632768693 14.043358818770665 0 0 0
1477 1 46.100842800977986 17.572399733686794 14.114370151231636 0 0 0
1040 1 49.52729512804673 14.819664500445482 11.662212251215394 0 0 0
1080 1 49.45922452284685 17.701227438661995 11.70930570415999 0 0 0
1438 1 48.74251917489097 16.203347989843515 13.988628945694515 0 0 0
1043 1 0.6447400784374407 19.1987242673356 11.671198084273758 0 0 0
1481 1 51.04806932219589 20.59416990651436 14.082104199607585 -1 0 0
1442 1 2.417748962572331 19.156422144810413 13.868771371359184 0 0 0
1047 1 5.808358457526217 19.181744820058242 11.559307618801702 0 0 0
1084 1 3.3653122588763464 20.7579676350229 11.643009020134276 0 0 0
1485 1 5.0424161502251685 20.652630456194785 13.982579864239833 0 0 0
1088 1 8.349611137853286 20.59697718169963 11.71899989669933 0 0 0
1489 1 10.0205117011013 20.648379113246 14.01205048059759 0 0 0
1446 1 7.442541821488382 19.255518693526994 13.92549061659403 0 0 0
1051 1 10.965774262984711 19.189592163687763 11.689971105086329 0 0 0
1092 1 13.533569147619065 20.69462526236139 11.623788078507793 0 0 0
1450 1 12.62113495673929 19.201999814081276 14.105069744429969 0 0 0
1055 1 16.238682503414243 19.241016720914978 11.801802963327784 0 0 0
1493 1 15.286129635156172 20.65368768682559 13.960816298131514 0 0 0
1096 1 18.790735118946692 20.80184375529955 11.685536145827013 0 0 0
1454 1 17.96853705637861 19.166301675793655 14.081461657026555 0 0 0
1059 1 21.31489489210843 19.32902805974407 11.635635658856788 0 0 0
1497 1 20.535986077510668 20.671522272268824 13.973913769699251 0 0 0
1458 1 23.021156753576367 19.25456610329084 14.010453636546805 0 0 0
1063 1 26.445494387901295 19.00483656592941 11.656516475928335 0 0 0
1100 1 23.965382232259085 20.693228055523278 11.531921628617235 0 0 0
1501 1 25.639404235365806 20.696680497884813 14.004600983131345 0 0 0
1104 1 29.088352528513198 20.613451963107764 11.702056895447253 0 0 0
1505 1 30.629529962829494 20.784964697511377 14.010236388330878 0 0 0
1462 1 28.173659972550556 19.193147902417948 14.138030798596567 0 0 0
1067 1 31.528527904728605 19.112138426974433 11.703241208239492 0 0 0
1466 1 33.00107689744216 19.224517903576533 14.08914144997506 0 0 0
1071 1 36.58926034191079 19.17500352291745 11.742071983379745 0 0 0
1108 1 34.083875023596036 20.573283548687918 11.735336655720804 0 0 0
1509 1 35.824657486333535 20.63948538811899 14.159501518657645 0 0 0
1112 1 39.22596564564145 20.66280930906177 11.678342829853758 0 0 0
1470 1 38.397733955700346 19.061005684485494 13.96021650192806 0 0 0
1075 1 41.718194625159256 19.111586990130327 11.740124213656534 0 0 0
1116 1 44.29766839076298 20.66977080116809 11.747542922403785 0 0 0
1474 1 43.62538011283171 19.18575547772152 13.960000998350656 0 0 0
1513 1 41.11072341873982 20.585413862081083 13.970014150739162 0 0 0
1079 1 46.96113127992149 19.411605415260127 11.703297096466423 0 0 0
1517 1 46.09552419724821 20.506466619259577 14.079296689946798 0 0 0
1120 1 49.51316597361782 20.568661262881115 11.616189750452385 0 0 0
1478 1 48.675460841466716 19.04764281473662 14.042947249385042 0 0 0
1083 1 0.7663453331563514 22.06164485829855 11.62906465519264 0 0 0
1123 1 0.945909009895469 25.158528461456704 11.67910614757669 0 0 0
1482 1 2.5055360726658304 22.038153685204847 14.075663438281918 0 0 0
1521 1 -0.03027351705832251 23.54972212942203 14.019846730103277 0 0 0
1522 1 2.55095579212384 24.92834762067192 14.03790425692931 0 0 0
1087 1 5.908846371383273 22.149458909277286 11.716774149913181 0 0 0
1124 1 3.273364624432612 23.573554906838076 11.64075972523615 0 0 0
1127 1 5.961635147604827 25.159695884539552 11.821905472534898 0 0 0
1525 1 5.0584118220259775 23.63003069527022 14.014652342022204 0 0 0
1128 1 8.400794995468509 23.633553728708783 11.727323026457755 0 0 0
1486 1 7.613205767125173 22.254598579791825 14.125636814900957 0 0 0
1526 1 7.589804102019571 25.076814258517388 14.073607244854585 0 0 0
1529 1 10.187884122853921 23.549015436160687 13.934525959931088 0 0 0
1091 1 11.01753176783104 22.176798020148446 11.714647972191536 0 0 0
1131 1 11.168145106586785 25.11010195066624 11.699540508487482 0 0 0
1132 1 13.669979531763872 23.709155939633504 11.614705669268256 0 0 0
1490 1 12.768033879689709 22.169049211186767 14.092455483600514 0 0 0
1530 1 12.838275642086767 24.992012846134607 14.092887206899137 0 0 0
1095 1 16.06129898383448 22.16304068765698 11.759045891294559 0 0 0
1135 1 16.19014088946384 25.102058235549087 11.580186031069644 0 0 0
1533 1 15.403867391322533 23.671594037391714 14.045568611207175 0 0 0
1136 1 18.66222990154608 23.580804277412767 11.693570374341958 0 0 0
1494 1 17.754760454732928 22.158162219622312 14.099296647449046 0 0 0
1534 1 17.86061872076544 25.09732142750142 14.05499734267746 0 0 0
1537 1 20.32831163610732 23.694276755710433 13.962076362233102 0 0 0
1538 1 23.029786557534045 25.19922805110442 13.977031240990613 0 0 0
1099 1 21.295045569880365 22.165269444409738 11.608771396967025 0 0 0
1139 1 21.265606916884426 25.118574545935175 11.6370087344465 0 0 0
1498 1 22.9020723533213 22.142750886083668 13.938939405462381 0 0 0
1541 1 25.573583163419435 23.667654062653376 13.922402321374177 0 0 0
1103 1 26.53935993970035 22.098128559456683 11.546097545933597 0 0 0
1140 1 23.856215701179167 23.645119378150667 11.55625220971203 0 0 0
1143 1 26.50213656929564 25.133119283509032 11.671837258324954 0 0 0
1542 1 28.15471189693368 25.285385464386408 13.96564069397439 0 0 0
1545 1 30.66336528572369 23.742993615796316 14.06492762428849 0 0 0
1144 1 28.968649232835116 23.68958849125297 11.644968271294703 0 0 0
1502 1 28.092090009849123 22.139220539218833 13.938802909804235 0 0 0
1546 1 33.2045162810719 25.08280456610649 13.904012763225925 0 0 0
1107 1 31.426284449773604 22.12367380938997 11.704125591380013 0 0 0
1147 1 31.50790899513542 25.21683809058542 11.762017076719491 0 0 0
1506 1 33.233154038148115 22.145403260955277 14.005603963999976 0 0 0
1549 1 35.87769180097314 23.69295126437069 13.972357531161665 0 0 0
1111 1 36.62159611931888 22.148365605230033 11.625329766423844 0 0 0
1148 1 33.93799520627675 23.604219826907325 11.65321599394794 0 0 0
1151 1 36.62659300729959 25.01765960103826 11.547764845070619 0 0 0
1550 1 38.434552147075294 25.18145868390109 13.967780582764023 0 0 0
1152 1 39.181371880086076 23.524350878616808 11.625216376111204 0 0 0
1510 1 38.486862483722604 22.125162436323542 13.970918924172157 0 0 0
1553 1 40.96002926002208 23.56298616010367 14.059669937211313 0 0 0
1554 1 43.46099568131807 24.92545768511541 13.916537623481657 0 0 0
1155 1 41.70144855532753 25.08123634958968 11.842152777524278 0 0 0
1156 1 44.50467846840755 23.540140689893803 11.732415276560792 0 0 0
1115 1 41.88733336003726 22.123446356680468 11.71278601958521 0 0 0
1514 1 43.53922140793591 22.15794159865257 14.084912455735862 0 0 0
1557 1 46.03410447606869 23.439841994597742 14.107727836063763 0 0 0
1159 1 47.03802068932973 25.07333816942304 11.632154874388169 0 0 0
1119 1 46.97628237278775 22.14655312870925 11.808417173888563 0 0 0
1558 1 48.61968508108569 25.004115745826 14.023485733645018 0 0 0
1160 1 49.61561303708183 23.642855230210436 11.709923232175656 0 0 0
1518 1 48.538866238060876 22.097361672856927 14.075800596748088 0 0 0
1561 1 -0.02023554934783696 26.546901380925924 14.02898780064933 0 0 0
1562 1 2.5407471810676303 28.012929606066088 14.157819860138353 0 0 0
1163 1 0.8479931237353123 27.98642585799957 11.775153882949875 0 0 0
1565 1 5.154322663318904 26.506542704320765 14.011810562535244 0 0 0
1164 1 3.3794200525292704 26.487698639245764 11.755090161585699 0 0 0
1167 1 5.926186079641743 28.027421098365714 11.627176076812793 0 0 0
1566 1 7.606554894278816 27.970099616642088 14.042792290150285 0 0 0
1168 1 8.410754336887408 26.548889127163747 11.73563803915502 0 0 0
1569 1 10.262006550650858 26.308081450098094 14.002626679947188 0 0 0
1171 1 11.024178787096265 27.952957374055416 11.729323226249093 0 0 0
1172 1 13.664395729051488 26.55692250666612 11.709608753372331 0 0 0
1570 1 12.768488761762084 27.956650259667136 14.117508967401688 0 0 0
1175 1 16.16667028783098 28.076660447473337 11.6709544568619 0 0 0
1573 1 15.348312324477646 26.543463306961677 14.03385430073317 0 0 0
1176 1 18.738587277594014 26.5813043598219 11.610989922300641 0 0 0
1574 1 17.972626449154415 28.100360071447113 13.87730484815899 0 0 0
1179 1 21.372250776586977 27.8792809689989 11.623405533963306 0 0 0
1577 1 20.394170705307804 26.64549050833523 14.02076447269909 0 0 0
1578 1 22.970167137350735 28.150475903533128 14.150466890850208 0 0 0
1180 1 23.841175356062887 26.629380617306296 11.67042785074358 0 0 0
1183 1 26.414989045814846 28.016497069289258 11.583193736783088 0 0 0
1581 1 25.564457400334348 26.693374383814813 13.96648653996091 0 0 0
1184 1 28.94672732241694 26.635462244202976 11.659384818430109 0 0 0
1582 1 27.915351861828047 28.052324619297167 13.935317733987965 0 0 0
1585 1 30.596533585338282 26.7000023233485 14.02401253519943 0 0 0
1187 1 31.609995921371578 28.168567977876023 11.617430478493452 0 0 0
1586 1 33.29139766849218 28.078732307783703 13.98065585498743 0 0 0
1188 1 34.187723943656465 26.618763436043842 11.640464737644574 0 0 0
1191 1 36.70275637523889 28.11596184631533 11.660145438294965 0 0 0
1589 1 35.76398813347494 26.660868976054815 13.991482346824757 0 0 0
1192 1 39.16316653588329 26.630236098010457 11.692816081152401 0 0 0
1590 1 38.47813215768457 28.250686514937918 14.123475290243269 0 0 0
1195 1 41.73154269704777 28.102992079800913 11.683928224654617 0 0 0
1196 1 44.469304125498894 26.571174459096262 11.637792468051071 0 0 0
1593 1 40.949582281400964 26.592311149872614 14.014439916975409 0 0 0
1594 1 43.42748474552343 28.00171881199328 13.959493730900546 0 0 0
1199 1 46.95341118554789 28.095405630074296 11.775599095922567 0 0 0
1597 1 46.006065779783796 26.457500152396058 14.144980739608876 0 0 0
1200 1 49.43386148943689 26.469068158288188 11.817506219965802 0 0 0
1598 1 48.564010268212684 27.957499984155902 14.12396667527457 0 0 0
1203 1 0.8569684310540139 1.408180158990102 16.27019935871351 0 0 0
1204 1 3.4250934876384753 29.357431318869175 16.37548761060774 0 -1 0
1207 1 5.8644818538680275 1.293938127186823 16.37603292284841 0 0 0
1244 1 3.375133240420787 2.936223363376992 16.39731156688279 0 0 0
1208 1 8.544975983347845 29.342755718412825 16.35244758285219 0 -1 0
1248 1 8.560634813438142 2.783509087116767 16.436256128863224 0 0 0
1211 1 11.070535989959978 1.5142833575744323 16.429991787582424 0 0 0
1212 1 13.563560640525584 0.026053688713026588 16.329319581278586 0 0 0
1252 1 13.707476381914448 2.969991137539776 16.382332844547804 0 0 0
1215 1 16.15276327950837 1.3621892568562999 16.238463592845175 0 0 0
1216 1 18.6842479864827 29.532351739249265 16.380987501606878 0 -1 0
1256 1 18.62349102005947 2.917176153155923 16.2571432410804 0 0 0
1219 1 21.336331442704907 1.4829039890483162 16.16530569169961 0 0 0
1220 1 23.872680802909567 -0.021793965366886846 16.509237283975246 0 0 0
1223 1 26.348733121285875 1.3979030737975457 16.310253719138124 0 0 0
1260 1 23.75297345799224 3.019075254079751 16.314993343897353 0 0 0
1224 1 29.002043380483972 0.01796175399156806 16.271288274546908 0 0 0
1264 1 28.966935200263183 2.978126812589449 16.23921592262835 0 0 0
1227 1 31.594941202104074 1.5087954202962734 16.236189421347202 0 0 0
1228 1 34.12529103649072 29.454696283709286 16.310643189270618 0 -1 0
1231 1 36.698025585762096 1.471621534044095 16.49565112149391 0 0 0
1268 1 34.086241971002735 2.9465781763164487 16.18766881922999 0 0 0
1232 1 39.236396069893644 29.480988711211037 16.438571663911727 0 -1 0
1272 1 39.23378151756259 2.9101325950962442 16.42532114822547 0 0 0
1235 1 41.82259967996757 1.519111407819276 16.420351288985394 0 0 0
1236 1 44.32788896833543 29.431956971144572 16.4024917272549 0 -1 0
1276 1 44.447443644798966 2.795679463602076 16.419248907261192 0 0 0
1239 1 46.94668978782458 1.331430944525018 16.40989146716138 0 0 0
1240 1 49.50037294080714 29.404491861388074 16.29162604294475 0 -1 0
1280 1 49.52265297952226 2.900863961079213 16.3025902853154 0 0 0
1243 1 0.8301869812537844 4.475080930359735 16.266031141162177 0 0 0
1284 1 3.3877266764710257 5.859382163270202 16.30705280368563 0 0 0
1247 1 5.973033287237912 4.448338794690343 16.412868501929637 0 0 0
1288 1 8.646671580570889 5.889645689550967 16.292794327001914 0 0 0
1292 1 13.614415823849436 5.858571895857563 16.29844645298136 0 0 0
1251 1 11.11246365354945 4.446995809651675 16.394829073362157 0 0 0
1255 1 16.19786230976783 4.244281893067035 16.15183528541999 0 0 0
1296 1 18.652252305035923 5.847169373695122 16.32774666111309 0 0 0
1259 1 21.2117862675737 4.539643372030571 16.426662197149216 0 0 0
1300 1 23.73464959420401 5.868548589478164 16.396666300050235 0 0 0
1263 1 26.446106252259582 4.342787962002507 16.486518245922962 0 0 0
1304 1 28.90418215122896 5.837773081865253 16.24860880322499 0 0 0
1267 1 31.632955616039744 4.418184067308336 16.32561417726741 0 0 0
1308 1 34.103358713047115 5.8549569898832585 16.331019669418325 0 0 0
1271 1 36.6100738059378 4.268329549654288 16.353999919276465 0 0 0
1312 1 39.163753476323606 5.89583667760033 16.345756827416857 0 0 0
1316 1 44.29697515100854 5.863324056336443 16.280868264595256 0 0 0
1275 1 41.735702898062556 4.371657030875861 16.32939596057611 0 0 0
1279 1 47.05005415323298 4.400790203312531 16.33352261702459 0 0 0
1320 1 49.424525892558776 5.8886357173662045 16.341029939560574 0 0 0
1283 1 0.8223390350734985 7.420979643679433 16.265421690616314 0 0 0
1323 1 0.7925808630876028 10.445932981518842 16.322796145488308 0 0 0
1287 1 5.9839912450333586 7.411202663902223 16.279081548942408 0 0 0
1324 1 3.3427309854122322 8.904721027985545 16.246769240328565 0 0 0
1327 1 5.93778945226727 10.294527061180277 16.37687724978234 0 0 0
1328 1 8.430567306328431 8.766561018992043 16.244943665398857 0 0 0
1291 1 10.973121645599244 7.446106311470942 16.380236345036334 0 0 0
1331 1 10.985407948330662 10.411474974212629 16.123595016533656 0 0 0
1332 1 13.64916957511535 8.762926313987224 16.30854930657385 0 0 0
1295 1 16.160612870652237 7.304244648469263 16.21556383798852 0 0 0
1335 1 16.04945635211339 10.368518422979855 16.199568694071296 0 0 0
1336 1 18.656575830817133 8.793105453037317 16.31404324053889 0 0 0
1299 1 21.09711787590733 7.450441498255797 16.370600404446616 0 0 0
1339 1 21.097904099480317 10.325932662372344 16.41270850378305 0 0 0
1303 1 26.387289026965455 7.395520271766043 16.413849663861438 0 0 0
1340 1 23.8402113252033 8.901991260246426 16.441508637699982 0 0 0
1343 1 26.453887211469706 10.335471946032202 16.428505606274665 0 0 0
1344 1 28.958349999455958 8.812380319265124 16.37785490517888 0 0 0
1307 1 31.382351885217204 7.36433787551908 16.454848664291845 0 0 0
1347 1 31.616768488435046 10.410580899489274 16.378348232085447 0 0 0
1311 1 36.74871796055869 7.3337721586865205 16.51044178238494 0 0 0
1348 1 34.073205519292344 8.84248905504855 16.44850578947488 0 0 0
1351 1 36.54244226262895 10.408179286770741 16.434207499175226 0 0 0
1352 1 39.196545111525325 8.855241129332068 16.504343376634253 0 0 0
1355 1 41.650978813522244 10.382097804983905 16.309578209446737 0 0 0
1356 1 44.327886534046144 8.829076726720457 16.409053422361765 0 0 0
1315 1 41.70765277435673 7.389430036289876 16.263891880776978 0 0 0
1359 1 46.95652400915796 10.275830856570524 16.424414666401976 0 0 0
1319 1 46.89321513551107 7.385879819996344 16.23787241473232 0 0 0
1360 1 49.37336200000941 8.864965208185149 16.37582948149698 0 0 0
1363 1 0.9848366552194152 13.311873326951831 16.292066413681493 0 0 0
1364 1 3.4818119206696725 11.859076656856113 16.31115166702725 0 0 0
1367 1 5.894631173358362 13.304319482883793 16.23293143981638 0 0 0
1368 1 8.363179688822116 11.728826803617237 16.387924906694643 0 0 0
1371 1 10.911350566933987 13.141952086643384 16.231511303198065 0 0 0
1372 1 13.666195346680839 11.726906018212262 16.292819632421452 0 0 0
1375 1 16.208735422494414 13.298010771031963 16.417261381035495 0 0 0
1376 1 18.673244926417357 11.875356038372699 16.525409794933935 0 0 0
1379 1 21.31216921227784 13.21261593061301 16.268603170761054 0 0 0
1380 1 23.90314072653642 11.832399944307486 16.37201068985451 0 0 0
1383 1 26.528176172219755 13.181422310852362 16.328336505951235 0 0 0
1384 1 29.1399511193367 11.84735341571681 16.537468476542482 0 0 0
1387 1 31.55626715409015 13.273891997124093 16.39700187067345 0 0 0
1388 1 33.926119895262644 11.834916322588303 16.344132474030108 0 0 0
1391 1 36.583506700604076 13.262326142915994 16.38560297095822 0 0 0
1392 1 39.10443169061351 11.799459096238225 16.476290554079 0 0 0
1395 1 41.86823512641875 13.309054263967505 16.475352922361687 0 0 0
1396 1 44.2938704615827 11.729728675775581 16.310625341497644 0 0 0
1399 1 46.92003511744471 13.219355995434771 16.49389557420816 0 0 0
1400 1 49.48916296333779 11.785109233029074 16.408413968527185 0 0 0
1403 1 0.9015621575511317 16.24968862743762 16.39529319106865 0 0 0
1404 1 3.35685587463413 14.748258302954696 16.268793256939723 0 0 0
1407 1 5.853246844231887 16.21160331821607 16.281824844182257 0 0 0
1444 1 3.5359129915162115 17.71288244788495 16.393904447777526 0 0 0
1408 1 8.507053322028883 14.750007564490177 16.28295178260822 0 0 0
1448 1 8.48174848308582 17.660419671316482 16.281270835271624 0 0 0
1411 1 10.939476027613209 16.220380121642556 16.427916733830052 0 0 0
1412 1 13.63000124953199 14.654958398366833 16.378980006298978 0 0 0
1452 1 13.464340061528043 17.66808137101613 16.414863420897984 0 0 0
1415 1 16.236875662857944 16.28979506777368 16.406434012986864 0 0 0
1416 1 18.789363899954438 14.772265615612373 16.412634196314546 0 0 0
1456 1 18.656530627164763 17.637252200345735 16.4312861633238 0 0 0
1419 1 21.30091917143392 16.222755603763694 16.37401551944827 0 0 0
1420 1 23.89502717679636 14.862852971327845 16.4038075151285 0 0 0
1423 1 26.46303325384373 16.327115249589582 16.49698417220602 0 0 0
1460 1 23.824749048886428 17.710788531077945 16.376889013669594 0 0 0
1424 1 29.000800160278775 14.7207953111328 16.400293294082193 0 0 0
1464 1 28.95336525253753 17.643487067533464 16.49983366620567 0 0 0
1427 1 31.39178624826993 16.2722197698342 16.35856503643895 0 0 0
1428 1 34.009606282797904 14.825914284244742 16.420530555779827 0 0 0
1431 1 36.5205317879399 16.292332099543493 16.3374396523443 0 0 0
1468 1 34.02711450384595 17.85222235417961 16.397544526367483 0 0 0
1432 1 39.2257749268487 14.84493211304106 16.462924602327845 0 0 0
1472 1 39.31274345405079 17.724034411826494 16.28917096113395 0 0 0
1435 1 41.801868453764286 16.19750521354608 16.309814938761736 0 0 0
1436 1 44.32248692580701 14.692058100270682 16.362969933821624 0 0 0
1476 1 44.3978744729845 17.690560750279417 16.369517283991247 0 0 0
1439 1 46.97407977385659 16.115230074812175 16.377252200875493 0 0 0
1440 1 49.50676041951718 14.7660454723097 16.36699564642633 0 0 0
1480 1 49.55099909344186 17.64408170934687 16.43641493737868 0 0 0
1443 1 0.9496480812887613 19.13022569932066 16.27874278017069 0 0 0
1484 1 3.456683387440755 20.59719367839866 16.33127339666642 0 0 0
1447 1 5.925075424262049 19.21376745843149 16.370047813493365 0 0 0
1488 1 8.460833680103667 20.72449711741048 16.41603602084061 0 0 0
1492 1 13.598401531263486 20.563832935687195 16.24373087913955 0 0 0
1451 1 11.000056064418956 19.129687780845167 16.34273389885981 0 0 0
1455 1 16.143176673739507 19.095289728496162 16.502695827026493 0 0 0
1496 1 18.72626283875733 20.714399336681254 16.389460858478145 0 0 0
1459 1 21.198430325647895 19.238491269516146 16.416157391542747 0 0 0
1500 1 23.90625079222955 20.678764607235003 16.20976690055026 0 0 0
1463 1 26.417876584104523 19.259307887348328 16.38216371145186 0 0 0
1504 1 28.96173888243768 20.759670460899223 16.34196947551389 0 0 0
1467 1 31.443145125590114 19.325398032665916 16.347802459627825 0 0 0
1508 1 34.08300841913338 20.688299706715604 16.473030136276837 0 0 0
1471 1 36.79869178265575 19.190196151774906 16.45113262697717 0 0 0
1512 1 39.22306975911091 20.692143957124493 16.338807889216856 0 0 0
1475 1 41.880685640849975 19.19543831021857 16.345074725434824 0 0 0
1516 1 44.2794366300956 20.60604237343407 16.368095840602365 0 0 0
1479 1 46.87238495995959 19.176544887730316 16.37357340609928 0 0 0
1520 1 49.51022755380629 20.59016323587465 16.49837802156978 0 0 0
1483 1 0.7511767297457229 22.003991365835923 16.423284230923226 0 0 0
1523 1 0.8738462542687313 25.027343985392967 16.298157436566765 0 0 0
1487 1 5.808139496453099 22.196873269606414 16.451625676838795 0 0 0
1524 1 3.332959814003904 23.481221038033716 16.39692653901337 0 0 0
1527 1 5.979285440181982 25.035035674956312 16.42434494676065 0 0 0
1528 1 8.545753502459712 23.699298508889214 16.32441743562661 0 0 0
1491 1 10.975003960082335 22.206080096425474 16.31893516768401 0 0 0
1531 1 11.067116962962464 24.954488820960393 16.39080564343111 0 0 0
1532 1 13.655129844167728 23.53277215176326 16.358482681988853 0 0 0
1495 1 16.164784913704782 22.042254891149888 16.470985496453572 0 0 0
1535 1 16.05789706636819 25.067013048822687 16.36447449109046 0 0 0
1536 1 18.696139928235016 23.60692767580337 16.325811937274647 0 0 0
1539 1 21.439777026520865 25.30421248616946 16.41212263683724 0 0 0
1499 1 21.267163634943515 22.234173335631596 16.38357052204376 0 0 0
1540 1 23.963201529129453 23.647498086422168 16.17623888380269 0 0 0
1543 1 26.408949730810985 25.081106109168672 16.337055648860133 0 0 0
1503 1 26.438733117503915 22.15156639073041 16.351373358487034 0 0 0
1544 1 28.937328700272747 23.693176164220077 16.337217903675644 0 0 0
1547 1 31.548069057077317 25.23007129401622 16.49049463392446 0 0 0
1507 1 31.52773119020092 22.332849488107406 16.424280437870973 0 0 0
1548 1 34.14313364104248 23.578030546752338 16.26966547314663 0 0 0
1551 1 36.62758255837156 25.007393148473767 16.306716030006648 0 0 0
1511 1 36.71650807032026 22.232627215021722 16.453454247047112 0 0 0
1552 1 39.291616637088154 23.51469546858963 16.307387827351356 0 0 0
1555 1 41.83684958401295 25.102244385086635 16.27985122931759 0 0 0
1556 1 44.219077672241795 23.554472581933013 16.464068824546096 0 0 0
1515 1 41.688591478718806 21.987649328094257 16.39459256712599 0 0 0
1559 1 46.95200511031955 24.998329223268442 16.45669914826197 0 0 0
1519 1 46.877291531254954 22.03099446529074 16.417221891749872 0 0 0
1560 1 49.371963820232324 23.52815021569844 16.374417298637653 0 0 0
1563 1 0.7605220487389289 27.973385115489684 16.304813664198413 0 0 0
1564 1 3.3679258749911676 26.37223974925125 16.41398425350398 0 0 0
1567 1 5.8926872598862285 28.005449458985048 16.361574094052433 0 0 0
1568 1 8.430074744008618 26.50032424047614 16.343922956972776 0 0 0
1571 1 10.974681032983543 27.878465404352767 16.37215357230681 0 0 0
1572 1 13.512002117237529 26.52346066478659 16.309408506595638 0 0 0
1575 1 16.0938048498659 28.05356027202844 16.198234351838224 0 0 0
1576 1 18.714751508466225 26.667665538442137 16.213594436347748 0 0 0
1579 1 21.262355332896814 28.140496943238233 16.33655407509417 0 0 0
1580 1 23.886495218336965 26.621763384971153 16.49713045420754 0 0 0
1583 1 26.39641436656347 28.06552938636458 16.49107314339256 0 0 0
1584 1 28.8872800711567 26.61150851968275 16.34268590735461 0 0 0
1587 1 31.549012692733864 28.148867793242374 16.311962666645076 0 0 0
1588 1 34.121644379494285 26.59554787706302 16.265058743241855 0 0 0
1591 1 36.75645440076998 27.9594481767962 16.443912674376474 0 0 0
1592 1 39.29072514848838 26.568907562188976 16.402905320179524 0 0 0
1595 1 41.913518086261405 28.052872921569247 16.322132304629193 0 0 0
1596 1 44.395541957622754 26.553106461756265 16.330207067012253 0 0 0
1599 1 46.95732273040353 27.974337830979103 16.44085805908412 0 0 0
1600 1 49.49585343386305 26.479384465795853 16.358649078390243 0 0 0
1601 1 0.05098820415832689 29.504174752627005 18.53933846112106 0 -1 0
1602 1 2.5377087409724943 1.4748355523793688 18.576015956191654 0 0 0
1603 1 0.9496827440582116 1.4804632116646175 20.872631384335264 0 0 0
1641 1 -0.006907731856011012 3.0203749637732966 18.524986123372145 0 0 0
1604 1 3.5245185488145263 29.525900278878545 21.0442022925639 0 -1 0
1605 1 5.018197691136056 0.05793552791596367 18.576382977152377 0 0 0
1607 1 6.033404638462298 1.5596170126746152 21.02237062847901 0 0 0
1644 1 3.433939244688027 2.8666739665771477 20.938503404147387 0 0 0
1645 1 5.152340313815166 2.9547108432074847 18.650064763320994 0 0 0
1606 1 7.660435026413606 1.4678562085936147 18.70170525334238 0 0 0
1608 1 8.531681456684607 0.15128873684782967 21.077509539509563 0 0 0
1609 1 10.173552702722219 0.11009602346406902 18.65772312543202 0 0 0
1648 1 8.57540013194127 3.0696808178512076 20.987460853058934 0 0 0
1649 1 10.183565980214045 2.9148837019137672 18.654683200894585 0 0 0
1610 1 12.739160815216968 1.4520969345090666 18.716228815740237 0 0 0
1611 1 11.02490459166987 1.503434299430966 21.034642066798924 0 0 0
1612 1 13.55993040554144 29.428072219112533 20.98628878364085 0 -1 0
1652 1 13.620990543437891 2.959622945993324 20.991528242980046 0 0 0
1613 1 15.325753478436361 29.434492845392906 18.659073038752496 0 -1 0
1615 1 16.135835933057482 1.3419395330883477 21.096353937255145 0 0 0
1653 1 15.362939152981685 2.833686061112733 18.7229251972562 0 0 0
1614 1 17.89348214202382 1.5801909853340739 18.685535882077446 0 0 0
1616 1 18.740841406230047 29.398157398138903 20.98179915441351 0 -1 0
1656 1 18.684057180577405 2.9207647483675165 21.067839728182143 0 0 0
1617 1 20.289468373780647 -0.03177665078175583 18.713092828306497 0 0 0
1618 1 22.956579536634695 1.4600492919805956 18.677811132094458 0 0 0
1619 1 21.172470986151712 1.4870040477923265 21.128747202710805 0 0 0
1657 1 20.438494440209187 2.9722863937282336 18.647461136474185 0 0 0
1620 1 23.873387334889916 0.07197112401997749 21.04856640640657 0 0 0
1621 1 25.653836678048343 0.08332553924439544 18.718869189988425 0 0 0
1623 1 26.56158070002793 1.488038402792104 21.031659589591186 0 0 0
1660 1 23.82366958594048 3.003614335302609 21.08278814682428 0 0 0
1661 1 25.600181216182815 3.054289396529045 18.744164577483996 0 0 0
1665 1 30.651203447588788 2.9151849374246632 18.556873625336408 0 0 0
1622 1 28.162164922191067 1.568493271752647 18.563383853533807 0 0 0
1624 1 29.056699936613015 29.505782525498002 20.97926478121352 0 -1 0
1625 1 30.66478668365693 -0.001535111192632041 18.564355472797857 0 0 0
1664 1 29.02325286835313 3.005555365176468 20.97076661504184 0 0 0
1626 1 33.23651323474843 1.4183453655016802 18.642291087200594 0 0 0
1627 1 31.414372707053154 1.5383397520461108 21.105412339048222 0 0 0
1668 1 34.02791101717024 2.926627930619954 21.00932683524328 0 0 0
1669 1 35.74222851233863 2.8997711796103993 18.65858764145376 0 0 0
1628 1 34.21923916061729 0.007093758845528805 21.008687350754435 0 0 0
1629 1 35.77770444553744 -0.023598875082042007 18.713545609911495 0 0 0
1631 1 36.583164174390916 1.4124971367142263 20.928880304220197 0 0 0
1672 1 39.16690322290677 2.886980030106104 21.129411280624936 0 0 0
1630 1 38.48645119275804 1.402668464874319 18.749070829397418 0 0 0
1632 1 39.19942907605238 29.519944837653956 21.00139940196789 0 -1 0
1673 1 40.95340082504275 3.034474621268751 18.55101828782545 0 0 0
1676 1 44.220550867179114 2.9887226724234144 21.15765932007601 0 0 0
1633 1 40.951448818799534 29.406871261876507 18.661526120805313 0 -1 0
1634 1 43.53287101723308 1.4774619398382114 18.770115012190345 0 0 0
1635 1 41.69575379651211 1.486626185950582 20.997701398225686 0 0 0
1636 1 44.34421826239931 -0.0010402545490713344 21.089510769885166 0 0 0
1677 1 46.00475395054103 2.8826121214349123 18.797151213740193 0 0 0
1637 1 46.054656425003174 29.50546239164045 18.732289501322448 0 -1 0
1639 1 46.90935504811584 1.4759624524259778 21.02331985918196 0 0 0
1680 1 49.5946732071466 2.813617670195452 20.870325484873682 0 0 0
1638 1 48.57769177246476 1.3561291214966271 18.684432521599692 0 0 0
1640 1 49.506987616999695 -0.017305426715985704 21.099814129835835 0 0 0
1681 1 51.036383852858485 5.87426655325411 18.73055713679571 -1 0 0
1642 1 2.4952072328637187 4.488767035580282 18.560891183902037 0 0 0
1643 1 0.9194385660516182 4.447257414420731 20.92854313515219 0 0 0
1684 1 3.473777699363287 5.732926017900538 20.98702600636406 0 0 0
1685 1 5.207305684202979 5.995276771288381 18.787402771407127 0 0 0
1647 1 5.986348431060514 4.423134709017057 21.145005507099576 0 0 0
1688 1 8.518886973076885 5.932566737570305 20.997488401463055 0 0 0
1689 1 10.187823537188505 5.947794728087521 18.585569558801758 0 0 0
1646 1 7.622375267265687 4.379238394742372 18.634291584612523 0 0 0
1692 1 13.695461997150495 5.950876739905016 21.014157783549695 0 0 0
1650 1 12.851433064079698 4.423104378097873 18.627946079717542 0 0 0
1651 1 11.15914639862862 4.425822768471034 20.864052739311028 0 0 0
1693 1 15.339758534553809 5.8765033813612275 18.639083500997334 0 0 0
1655 1 16.175186483397383 4.357397568617895 20.95485860665903 0 0 0
1696 1 18.85047278240712 5.8813766780810885 20.996012540142353 0 0 0
1654 1 17.89013532302034 4.332583974135842 18.536463189636304 0 0 0
1697 1 20.370226704414307 5.930840062003164 18.717950126209544 0 0 0
1658 1 22.919406293210347 4.377530653744537 18.73780214284487 0 0 0
1659 1 21.190540595194673 4.345994324037355 21.154648814462337 0 0 0
1700 1 23.809461281682733 5.8716309696904325 21.127288305130797 0 0 0
1701 1 25.452293599142884 5.947639432461141 18.78208780820554 0 0 0
1663 1 26.5811126135931 4.449911592952488 20.974681847027483 0 0 0
1704 1 29.077745922516424 5.864996704636363 21.032555736851464 0 0 0
1705 1 30.720260148678445 5.951632766013042 18.693244633191654 0 0 0
1662 1 28.291851696831458 4.444005494530637 18.65535438894098 0 0 0
1666 1 33.23990734110809 4.368308556442198 18.626310680790713 0 0 0
1667 1 31.524259670283076 4.325333524302427 20.991842218962255 0 0 0
1671 1 36.63240865734929 4.3788577178212815 20.973489161806715 0 0 0
1708 1 34.052759516613065 5.985323401788381 21.02980723426784 0 0 0
1709 1 35.77414956402474 5.8703777490914195 18.73220504627309 0 0 0
1670 1 38.33288808633178 4.387635172421713 18.66058618757397 0 0 0
1712 1 39.22534007735641 5.831907603888305 21.041323221468513 0 0 0
1674 1 43.522652126448435 4.328617343681167 18.575915583414872 0 0 0
1675 1 41.72794904712279 4.289180417740025 21.05858206039636 0 0 0
1713 1 41.02240434934133 5.9615884082246895 18.71067405876545 0 0 0
1716 1 44.247274089178916 5.795746862603996 21.021007460366512 0 0 0
1679 1 46.8791243484104 4.3503419610064 20.99245316602376 0 0 0
1717 1 46.02314618152802 5.968455984738254 18.562697131488864 0 0 0
1678 1 48.46493180836258 4.4732606389003635 18.701219405962277 0 0 0
1720 1 49.52563560090432 5.87869630381919 21.15143746629059 0 0 0
1682 1 2.355913854852411 7.461795749621605 18.568793047388034 0 0 0
1683 1 0.7508233012157978 7.283147137439417 20.964468549010725 0 0 0
1721 1 51.08664329765193 8.78225082788017 18.730888307182337 -1 0 0
1722 1 2.463232957163675 10.402219878151476 18.66893605556441 0 0 0
1723 1 0.9152728192925774 10.243062626270131 21.051211061529717 0 0 0
1687 1 5.94588162755357 7.450332357823812 21.041287890424382 0 0 0
1724 1 3.400318060274996 8.717361526496251 20.95786131525963 0 0 0
1725 1 5.062144105383675 8.704590075095568 18.6628466141371 0 0 0
1727 1 5.893013778031378 10.361161016342493 21.061955971571205 0 0 0
1686 1 7.768187134988434 7.350774525941671 18.630893911809814 0 0 0
1726 1 7.6028215590832335 10.355075317298043 18.65183906569763 0 0 0
1728 1 8.507273406253114 8.806330925884797 21.053761773047313 0 0 0
1729 1 10.184974105717892 8.834831458255914 18.699517020976923 0 0 0
1690 1 12.850697373322937 7.357236821193906 18.55006328855401 0 0 0
1691 1 11.120714602401518 7.3970448177703 20.97027475944713 0 0 0
1730 1 12.833546922720364 10.270855822580279 18.769065048450365 0 0 0
1731 1 11.208014323137935 10.210684207892127 20.87862091741045 0 0 0
1732 1 13.763154643570736 8.82055395774441 20.981135414944056 0 0 0
1695 1 16.263703660148945 7.329978274824024 21.066005246685428 0 0 0
1733 1 15.361212173703578 8.736062517215295 18.58328115880201 0 0 0
1735 1 16.261099742801676 10.2703357215158 21.080310087742458 0 0 0
1694 1 17.81493180414074 7.248030623068858 18.693448853624144 0 0 0
1734 1 17.91102092942186 10.355314999793835 18.609427355875674 0 0 0
1736 1 18.787268626285226 8.872682968019872 21.07004619926857 0 0 0
1698 1 22.920174276398306 7.431373846793948 18.754213005925187 0 0 0
1699 1 21.28704125039009 7.42803368461968 21.01194764203188 0 0 0
1737 1 20.297433683969377 8.871951408338782 18.66818860288147 0 0 0
1738 1 23.05999059890617 10.482036030658682 18.680246463932136 0 0 0
1739 1 21.318814743057526 10.397164000804482 21.049798441154728 0 0 0
1703 1 26.42981283995701 7.318415964634379 21.018478747259433 0 0 0
1740 1 23.866019795831274 8.920369764397286 21.022992600298583 0 0 0
1741 1 25.616453737414115 8.815749632529148 18.823952531828564 0 0 0
1743 1 26.48484361001808 10.307627502748291 21.226488189461563 0 0 0
1702 1 28.064038398922268 7.33157346370149 18.704346536609066 0 0 0
1742 1 28.127731282097145 10.295589700895945 18.86309463029681 0 0 0
1744 1 28.77335194184057 8.743347216584075 21.10533742447577 0 0 0
1745 1 30.69760838629907 8.898903571521739 18.954789052110428 0 0 0
1706 1 33.291073303091835 7.31401155347733 18.6374774403689 0 0 0
1707 1 31.545968968324473 7.26540866614986 21.00132140433909 0 0 0
1746 1 33.200151599890276 10.275029963760753 18.73586362225307 0 0 0
1747 1 31.447765662622125 10.24160082816446 21.114583328689424 0 0 0
1711 1 36.54306773294168 7.359540195069081 21.201895676740072 0 0 0
1748 1 34.17389579824348 8.809605174008452 21.074202424757978 0 0 0
1749 1 35.9395215728364 8.817112844849502 18.681670980220577 0 0 0
1751 1 36.687128165131995 10.27508080057172 21.141905997600773 0 0 0
1710 1 38.481990783179455 7.25249943766995 18.857429652537114 0 0 0
1750 1 38.411029913611884 10.382911523574244 18.784706777672234 0 0 0
1752 1 39.26854584190761 8.873999537572898 21.080335689246073 0 0 0
1714 1 43.447911220957764 7.257316622216281 18.707672978967796 0 0 0
1715 1 41.66455229428432 7.154574495927164 21.098609327983947 0 0 0
1753 1 40.886312377145615 8.92642588303765 18.860229498634066 0 0 0
1754 1 43.56324551823148 10.174100909636929 18.77206267599955 0 0 0
1755 1 41.69410060197369 10.35884467831272 21.098521520228903 0 0 0
1756 1 44.38339455960704 8.720448242316285 21.088935556608018 0 0 0
1719 1 46.91453027312822 7.18531944754028 20.93785162807434 0 0 0
1757 1 45.97618569454529 8.793637229061538 18.67839070557312 0 0 0
1759 1 46.85666924332139 10.166780340688428 20.93874562312878 0 0 0
1718 1 48.56030959602414 7.30137360314949 18.748771200587417 0 0 0
1758 1 48.63792877941381 10.368307342066355 18.740334326417553 0 0 0
1760 1 49.36934393471684 8.836409241308367 21.029214881151802 0 0 0
1761 1 -0.03281812009405956 11.81935942215745 18.830546351144196 0 0 0
1762 1 2.431767511641238 13.157857163722596 18.79550103271076 0 0 0
1763 1 0.7873021414880563 13.249693211830575 21.095902264076194 0 0 0
1764 1 3.2970653217448858 11.757135864921207 21.06446621645279 0 0 0
1765 1 5.029272010919757 11.804692589728921 18.673122536468966 0 0 0
1767 1 6.05387063604775 13.294125196253944 20.962613871914986 0 0 0
1766 1 7.615948100899558 13.220015651115348 18.695053619536537 0 0 0
1768 1 8.584846439483382 11.788474720783464 21.047994470354944 0 0 0
1769 1 10.244133450293523 11.81268405741263 18.771814595410866 0 0 0
1770 1 12.744044068019031 13.251953255938746 18.62734421629285 0 0 0
1771 1 11.105164974403516 13.174434555970759 21.158071707213335 0 0 0
1772 1 13.717035608437456 11.841187813751628 20.95696677129035 0 0 0
1773 1 15.287086901128239 11.787476729303958 18.657708086352752 0 0 0
1775 1 16.1080065713284 13.378877260052539 21.081616971395054 0 0 0
1774 1 17.967840624807835 13.357645396001859 18.88270843264632 0 0 0
1776 1 18.58521874073808 11.820978009437104 21.017298131122715 0 0 0
1777 1 20.413178298442197 11.80753585040871 18.70278448759499 0 0 0
1778 1 23.038483934084567 13.27538191923882 18.637058487558438 0 0 0
1779 1 21.30912558076064 13.250864529322383 21.014941126265654 0 0 0
1780 1 23.871504028349975 11.923335227518606 21.055923727506773 0 0 0
1781 1 25.644036542307592 11.806462794991354 18.820433580289016 0 0 0
1783 1 26.50482663648586 13.43228778651614 21.185719449908383 0 0 0
1782 1 28.096492517948604 13.283667724944275 18.80720698112041 0 0 0
1784 1 28.86165989948087 11.849018354349237 20.966622122188777 0 0 0
1785 1 30.759167525670385 11.957537935046993 18.848498011981718 0 0 0
1786 1 33.27143083302326 13.217155248160386 18.815138905936692 0 0 0
1787 1 31.479917706300807 13.353406973012113 21.210270603193074 0 0 0
1788 1 34.029315244172025 11.804387838211708 21.106891630264503 0 0 0
1789 1 35.71341377226919 11.756454737711003 18.757534689465466 0 0 0
1791 1 36.703266145117155 13.243969563620102 21.090315607270345 0 0 0
1790 1 38.30135480400192 13.317002137858271 18.8501894263481 0 0 0
1792 1 39.174781475310496 11.701718860303842 21.10562905603596 0 0 0
1793 1 40.93551786841731 11.83530536677864 18.820869177913853 0 0 0
1794 1 43.45817341664704 13.264204826588218 18.786482944807783 0 0 0
1795 1 41.819755767245994 13.29993059649805 21.119936762099005 0 0 0
1796 1 44.30877438521466 11.763802677760394 21.204518149863883 0 0 0
1797 1 45.96081852398348 11.778956450198677 18.811463328513533 0 0 0
1799 1 46.8917967751742 13.169894205080022 20.97101141827709 0 0 0
1798 1 48.66668510216148 13.27393050413247 18.637993590631048 0 0 0
1800 1 49.35949666495472 11.801900845617231 20.98307933470097 0 0 0
1801 1 0.06855409699208204 14.757896806857111 18.727582318121712 0 0 0
1802 1 2.6118239171006055 16.336966155827902 18.654754475103587 0 0 0
1803 1 0.8506231542148212 16.186249242650952 20.95893420438539 0 0 0
1841 1 0.14877403638139097 17.575138079610632 18.63918159207792 0 0 0
1804 1 3.447754447584537 14.663812373426211 21.013110535205836 0 0 0
1805 1 5.074742938327888 14.686292878843316 18.496522784770523 0 0 0
1807 1 5.996364601300533 16.22132793374881 21.052777210110218 0 0 0
1844 1 3.335714656158133 17.705510107748935 21.125334511672943 0 0 0
1845 1 5.106580809798011 17.618010675613192 18.702800508649084 0 0 0
1806 1 7.683084877071097 16.200682231437796 18.65708587990137 0 0 0
1808 1 8.50325190884367 14.784524975029035 21.07454978843923 0 0 0
1809 1 10.244766162785492 14.60875588591957 18.745974952793315 0 0 0
1848 1 8.460972593131524 17.696902725464504 21.189270318493843 0 0 0
1849 1 10.13562564027529 17.636739134980182 18.659207674940387 0 0 0
1810 1 12.758477344353324 16.151146231417925 18.705797523346888 0 0 0
1811 1 11.04829425447881 16.37012501681577 20.966369676405435 0 0 0
1812 1 13.543301833872398 14.697974718742138 21.149282704101154 0 0 0
1852 1 13.66440840152062 17.800130711794594 21.13520147102818 0 0 0
1813 1 15.272215782158385 14.764957314096142 18.80604015083826 0 0 0
1815 1 16.363444698108456 16.296167247946897 21.16402592668553 0 0 0
1853 1 15.248307640091019 17.636799274488347 18.765212731998055 0 0 0
1814 1 17.797294322480617 16.189327399065874 18.79585050842639 0 0 0
1816 1 18.79628791238259 14.734700740511547 21.165462297971814 0 0 0
1856 1 18.86232793456347 17.883443078167055 21.108509135351344 0 0 0
1817 1 20.442029830600337 14.723124399072898 18.727610900910946 0 0 0
1818 1 22.997394804329964 16.16020279163409 18.754550111642594 0 0 0
1819 1 21.216728135319812 16.230791556220524 21.09733663021138 0 0 0
1857 1 20.385555096416685 17.74584489729522 18.718796170659278 0 0 0
1820 1 23.861737166910135 14.813934400942323 20.97262284112412 0 0 0
1821 1 25.557753767103804 14.760818633176955 18.687102523093568 0 0 0
1823 1 26.458610470350557 16.280875175608443 21.139682945582873 0 0 0
1860 1 23.88748374051536 17.941317604731402 21.080738094356125 0 0 0
1861 1 25.521935069230732 17.7206219998194 18.79634260906664 0 0 0
1822 1 28.02523775958698 16.16048176045244 18.85061791720997 0 0 0
1824 1 28.994917566084414 14.83651412143353 21.266617267375967 0 0 0
1864 1 28.95101583654704 17.662411399100925 21.156649762421594 0 0 0
1865 1 30.57632140911381 17.737564789066177 18.737489551347483 0 0 0
1825 1 30.80627623289372 14.687992311352025 18.781643676089953 0 0 0
1826 1 33.23496407585202 16.33076250742409 18.70713085730046 0 0 0
1827 1 31.611894139441578 16.361671810767668 21.033216538665286 0 0 0
1868 1 34.00530332532442 17.84970069102104 21.155652161886007 0 0 0
1869 1 35.776763703377966 17.781690348585023 18.720323635118397 0 0 0
1828 1 34.08706192403896 14.895423898416203 21.165788360036725 0 0 0
1829 1 35.777904207390606 14.901933406534615 18.68662124838989 0 0 0
1831 1 36.62361065146456 16.277524281403764 21.03458500536369 0 0 0
1872 1 39.18087884415519 17.63891477927409 21.093519822865066 0 0 0
1830 1 38.48203926756089 16.250775535158688 18.77840698709835 0 0 0
1832 1 39.20795909383577 14.787982394231111 21.071983108395138 0 0 0
1873 1 41.18689086717475 17.576374487430932 18.632178996621114 0 0 0
1876 1 44.290266553239704 17.534871543026853 21.035038553275633 0 0 0
1833 1 40.984781951813915 14.705142719032702 18.66981361037948 0 0 0
1834 1 43.496713239477955 16.214962717089897 18.687512212342583 0 0 0
1835 1 41.79866756711965 16.203666392769257 21.099708222563695 0 0 0
1836 1 44.335224783655235 14.805327033382575 21.08013342727658 0 0 0
1877 1 46.03479363410999 17.573409952870826 18.685536008624126 0 0 0
1837 1 45.986770368236165 14.666251027414622 18.75945513637964 0 0 0
1839 1 46.93458205693834 16.174422249954695 21.054960178362084 0 0 0
1880 1 49.45775531425079 17.689998419192 20.98972643906443 0 0 0
1838 1 48.57348132175737 16.16340201433627 18.757243758393827 0 0 0
1840 1 49.507456539256054 14.693704632532576 21.003012735879096 0 0 0
1881 1 -0.019901300195344453 20.429559429890816 18.76823925662085 0 0 0
1842 1 2.737671605553201 19.061154054938818 18.647585563121876 0 0 0
1843 1 0.8548033508588959 19.14408342933239 21.00569119028588 0 0 0
1884 1 3.3872793796385676 20.69638024393379 21.090562497189882 0 0 0
1885 1 5.095524935384319 20.562083891301008 18.729869798641232 0 0 0
1847 1 6.0005716093539565 19.16896986256026 21.063137666752866 0 0 0
1888 1 8.498031152070787 20.768076328318102 20.947825358969006 0 0 0
1846 1 7.748436012196579 19.19765151777542 18.60622900940036 0 0 0
1889 1 10.2598972136072 20.68012266106544 18.680487662122054 0 0 0
1850 1 12.73882221031262 19.178878065146755 18.762051951778535 0 0 0
1851 1 11.092596505506677 19.2719613979623 21.09226584504069 0 0 0
1892 1 13.626157225296685 20.669624635706803 21.10428144192018 0 0 0
1855 1 16.307444818675915 19.0929416876548 21.17221730726356 0 0 0
1893 1 15.372233138161972 20.63439803328024 18.717453343021255 0 0 0
1854 1 17.805808782810193 19.128180613609054 18.695948526102143 0 0 0
1896 1 18.78768572056344 20.71358538211272 20.989426960950002 0 0 0
1858 1 23.018451266999513 19.329541753488805 18.677400484114866 0 0 0
1859 1 21.33589266331167 19.26710829461443 20.972980917974397 0 0 0
1897 1 20.522269363922693 20.675103669487335 18.719801830200982 0 0 0
1863 1 26.46543653247018 19.168765460947206 21.079723222598634 0 0 0
1900 1 23.89636159605214 20.654489525400557 21.119735085149244 0 0 0
1901 1 25.561627260314737 20.742914017358494 18.69600183547775 0 0 0
1862 1 28.09491028768621 19.245287802494808 18.791881161449776 0 0 0
1904 1 28.920093339649014 20.656148768147908 21.075751687384887 0 0 0
1905 1 30.64120297465503 20.77609482835574 18.77009066294733 0 0 0
1866 1 33.004186729497675 19.303309505496486 18.746697691913607 0 0 0
1867 1 31.47844412137191 19.18304667041133 21.108274575799484 0 0 0
1871 1 36.73282835359841 19.244960320258684 21.060966943510152 0 0 0
1908 1 34.2129872422944 20.724560717069117 21.001184696703373 0 0 0
1909 1 35.85765908031364 20.67707660220151 18.77324102965781 0 0 0
1870 1 38.459772581937855 19.098446524861465 18.709528730195846 0 0 0
1912 1 39.16301329011985 20.69151069903176 21.00761659485953 0 0 0
1874 1 43.505710704568685 19.053272061375907 18.741887541732044 0 0 0
1875 1 41.84285966306186 19.063885929093544 21.142532377286173 0 0 0
1913 1 40.82066795838638 20.507482559037122 18.84410832900745 0 0 0
1916 1 44.34610730062025 20.696703700779054 21.04737738848955 0 0 0
1879 1 46.8191937539585 19.11660349721133 21.00172408545117 0 0 0
1917 1 45.906319015347705 20.671586757112813 18.768890174486856 0 0 0
1878 1 48.444320517162794 19.01723007568266 18.686961322050788 0 0 0
1920 1 49.406196140735844 20.490086290927607 21.087839685536856 0 0 0
1921 1 0.023155209244231367 23.40534285147831 18.735319181792942 0 0 0
1922 1 2.434922042729471 24.93582559746686 18.609230829899033 0 0 0
1923 1 0.8338987890699188 25.091628202765 21.003335856123115 0 0 0
1882 1 2.4985223618472125 22.041945085416202 18.749027212558985 0 0 0
1883 1 0.8253846012190295 22.096654965660605 21.11040392813952 0 0 0
1924 1 3.3701759389136217 23.76542927066965 21.123919286886743 0 0 0
1925 1 5.085949274987862 23.621473552126908 18.73852741690876 0 0 0
1927 1 5.975308210078287 25.070347155980222 21.23462952966563 0 0 0
1887 1 5.911654385960566 22.17722072504533 21.140032104712816 0 0 0
1926 1 7.667277578305647 25.002842571441803 18.730846702246758 0 0 0
1928 1 8.525570735998935 23.450933218392763 21.155985143537674 0 0 0
1929 1 10.194944075281574 23.604218984010984 18.748469766724234 0 0 0
1886 1 7.638296735891991 22.101790244519457 18.824115977780426 0 0 0
1930 1 12.690458237535713 25.14517498249362 18.61537022058902 0 0 0
1931 1 10.958380848660354 25.114094554371462 21.01097930282311 0 0 0
1932 1 13.676721795606092 23.562751956093116 21.124286814092265 0 0 0
1890 1 12.75682426635191 21.97844146583872 18.632339003982896 0 0 0
1891 1 10.996858735646107 22.07969075029346 21.076502575427256 0 0 0
1933 1 15.307780943069647 23.548584129528976 18.790002945446055 0 0 0
1935 1 16.162736213589675 25.12790106934404 21.178112615995573 0 0 0
1895 1 16.314032051031393 22.139387080239487 21.1134505765645 0 0 0
1934 1 17.814601724634116 25.232157854950607 18.59998582498471 0 0 0
1936 1 18.741993076354973 23.655810218157754 20.968678854735337 0 0 0
1894 1 17.84761080672485 22.1724702593381 18.7674302767197 0 0 0
1937 1 20.43311598257691 23.64515195425183 18.65012740491982 0 0 0
1938 1 22.96526064780668 25.2018978188841 18.76144869392449 0 0 0
1939 1 21.370517361889245 25.042797246793782 21.063194456198698 0 0 0
1898 1 22.889447073822843 22.212295714635772 18.683350169933195 0 0 0
1899 1 21.348157901961905 22.285088182276084 21.060832100684618 0 0 0
1940 1 23.854904485381432 23.635181663948877 21.04332698475094 0 0 0
1941 1 25.508840974016035 23.704891330796457 18.545750095410956 0 0 0
1943 1 26.26205642542466 25.040906749656564 21.134386789051298 0 0 0
1903 1 26.30688402519678 22.186964483139498 21.0663319051793 0 0 0
1942 1 28.04168153048089 25.116028384310233 18.71402741074 0 0 0
1944 1 28.89432329238682 23.707584446012994 21.011233500383224 0 0 0
1945 1 30.649479182910316 23.689431501678833 18.667302101092723 0 0 0
1902 1 28.125619266928116 22.217739996721022 18.727095888478672 0 0 0
1946 1 33.21482038179191 25.173826996279423 18.67033137224764 0 0 0
1947 1 31.59437221112349 25.101039669323292 20.975419825734335 0 0 0
1906 1 33.326584222530045 22.20039075248212 18.660222504872944 0 0 0
1907 1 31.627759920432695 22.20114411240383 21.0559230861901 0 0 0
1948 1 34.15260072270483 23.67951372060881 21.02937190277196 0 0 0
1949 1 35.914316512525744 23.709836175365467 18.514461818575523 0 0 0
1951 1 36.756824515364485 25.06431633416544 21.145723873101545 0 0 0
1911 1 36.72503028414776 22.19501705823358 21.160264594464202 0 0 0
1950 1 38.40337907921271 25.04830495737611 18.69987157967606 0 0 0
1952 1 39.23990826558841 23.64118387343779 21.028625406516014 0 0 0
1910 1 38.39408085554378 22.265113642753988 18.70769484337715 0 0 0
1953 1 40.9110977905474 23.536427550714166 18.651001833401867 0 0 0
1954 1 43.43677625838545 25.064516554642744 18.693892546330293 0 0 0
1955 1 41.74558087047994 25.190774334472067 20.987070894864598 0 0 0
1956 1 44.349486857510556 23.590631654320504 21.045937509024423 0 0 0
1914 1 43.47883100409706 22.03249284122775 18.67004030380934 0 0 0
1915 1 41.79186959316286 22.232224182936598 21.137760963338778 0 0 0
1957 1 45.993851277191396 23.432153514317278 18.68027018252394 0 0 0
1959 1 47.040616598630635 25.059231520583985 20.991442972021826 0 0 0
1919 1 46.82896179831938 22.246321341800737 21.049187813171088 0 0 0
1958 1 48.601609496467006 24.884092573761137 18.690224256456062 0 0 0
1960 1 49.430477923264505 23.5702067626222 21.111896527866268 0 0 0
1918 1 48.458117698895464 21.98008795542816 18.782890673083582 0 0 0
1961 1 51.142837745882126 26.5335348720805 18.62929370459153 -1 0 0
1962 1 2.420484689335064 28.049532794357113 18.65804461254318 0 0 0
1963 1 0.7860630863802311 27.98972878649164 20.90709859681659 0 0 0
1964 1 3.298496658220449 26.513812313702857 21.053160072615565 0 0 0
1965 1 5.059693509175146 26.519931800527424 18.84650364780423 0 0 0
1967 1 5.955948519146917 28.10853536148589 20.95575822280856 0 0 0
1966 1 7.63380754588544 28.08786495211242 18.73213219865897 0 0 0
1968 1 8.611554363086631 26.541489611610842 21.086228391153295 0 0 0
1969 1 10.178916305422195 26.674501852005875 18.729888017492282 0 0 0
1970 1 12.829021864090791 27.997662354806167 18.772986211681282 0 0 0
1971 1 11.035454967577792 27.923315297635234 21.01873698076961 0 0 0
1972 1 13.62654952209889 26.519391287338678 21.020535542603 0 0 0
1973 1 15.321454943553771 26.58513846855474 18.642184437802726 0 0 0
1975 1 16.226126528157668 28.07926443669828 21.018611603787328 0 0 0
1974 1 17.751052266148807 28.09617599693157 18.60636969556542 0 0 0
1976 1 18.817698282650515 26.503035738742717 20.92327523828141 0 0 0
1977 1 20.36202160857951 26.69759059700329 18.625465831528455 0 0 0
1978 1 22.977426658163225 28.106378792990775 18.7747335744467 0 0 0
1979 1 21.267284042704954 28.08403123717971 21.178318951032466 0 0 0
1980 1 23.885365248158866 26.679278075854214 21.108264551414585 0 0 0
1981 1 25.466291414817096 26.458443100511765 18.776868344605006 0 0 0
1983 1 26.404358958821533 28.052175388141023 20.997850656033823 0 0 0
1982 1 28.422081133980022 28.06010677671447 18.67020868328893 0 0 0
1984 1 28.861618511873584 26.472231194735954 21.26273610836453 0 0 0
1985 1 30.787865094656656 26.726414746832525 18.731565675459382 0 0 0
1986 1 33.30511526559057 28.044214111595657 18.612489440474118 0 0 0
1987 1 31.618872131271722 28.12744988813899 20.99006901213697 0 0 0
1988 1 34.161633615989885 26.528984518939865 20.97966417846506 0 0 0
1989 1 35.9156648536091 26.47393047986383 18.750112125518285 0 0 0
1991 1 36.644337704579485 27.957378642378586 20.92112969715366 0 0 0
1990 1 38.47963352624299 28.157658503128786 18.65616138889835 0 0 0
1992 1 39.25076448335861 26.542738299460716 21.11719573736745 0 0 0
1993 1 41.01460642114807 26.57595342550882 18.63664433694226 0 0 0
1994 1 43.51049467415601 28.01381471839771 18.703396841772133 0 0 0
1995 1 41.8758095533739 28.002538653761114 20.924075516083636 0 0 0
1996 1 44.52609892068766 26.644687032892463 21.001173806046406 0 0 0
1997 1 46.02584274838668 26.461140584939336 18.607139024645555 0 0 0
1999 1 46.897174402916534 28.15565609950228 21.09971516263787 0 0 0
1998 1 48.624660931971235 28.086762283585458 18.76536305410044 0 0 0
2000 1 49.41268580501608 26.535281385413732 21.018816690397806 0 0 0
2001 1 -0.004043711262177362 29.3999786827274 23.361834019093372 0 -1 0
2002 1 2.543591878414123 1.485740752990389 23.221601080030627 0 0 0
2041 1 -0.024458615769950273 2.9529281934018745 23.344921553255382 0 0 0
2005 1 5.156464831002766 0.012310475436852604 23.370346102440358 0 0 0
2045 1 5.105034967266581 2.9765791794030694 23.379259175607274 0 0 0
2049 1 10.259294157335605 2.9702160098731083 23.244347816657434 0 0 0
2006 1 7.638839193062688 1.4901859132378292 23.266058671985753 0 0 0
2009 1 10.181549737256631 -0.005630928709512328 23.413119543130083 0 0 0
2010 1 12.684776990710239 1.3963679090579526 23.252198058229776 0 0 0
2053 1 15.408557561602116 2.8724839736385737 23.371689615159923 0 0 0
2013 1 15.220006282710036 29.52352443048476 23.357690149321307 0 -1 0
2014 1 17.818951260072048 1.2513668220666796 23.331679959902672 0 0 0
2057 1 20.321594184487154 2.861464833692645 23.362464427619162 0 0 0
2017 1 20.4027827027747 29.49487684858271 23.3751377504255 0 -1 0
2018 1 22.98039156333908 1.5562978730182264 23.22400088215674 0 0 0
2061 1 25.618041834429135 2.9966205800940595 23.545633245564847 0 0 0
2021 1 25.601373736606206 -0.009922431522456577 23.402341918654372 0 0 0
2065 1 30.643779394251872 3.043173878572085 23.36095323888985 0 0 0
2022 1 28.154775911423638 1.4624815106776958 23.43746398998189 0 0 0
2025 1 30.693393391135878 0.04871273782384539 23.32246214087049 0 0 0
2026 1 33.219923665963165 1.5229148392080059 23.343918144956948 0 0 0
2069 1 35.72056898293984 2.863379642109636 23.610870238751556 0 0 0
2029 1 35.916544337065474 29.508531274265152 23.434130161344257 0 -1 0
2030 1 38.218467377728956 1.3015272356616912 23.36932817572155 0 0 0
2073 1 40.86930380735478 2.9338669495393983 23.372195875763094 0 0 0
2033 1 40.880614979136624 0.06314141600179826 23.439045127184826 0 0 0
2034 1 43.49009764638181 1.34313958746422 23.33072522850031 0 0 0
2077 1 46.02639314336055 2.8737875731746048 23.36854934054062 0 0 0
2037 1 46.034432981616575 29.509999441209008 23.21814416581859 0 -1 0
2038 1 48.76434754411477 1.5455202234498218 23.441316586868954 0 0 0
2081 1 51.102214326153465 5.767654675746135 23.408567061735155 -1 0 0
2042 1 2.4924271485968945 4.26290856865611 23.284409880973342 0 0 0
2085 1 5.086871029305146 6.025663828323016 23.24213807906172 0 0 0
2089 1 10.32240545591607 5.917150415073964 23.308775455156024 0 0 0
2046 1 7.576538026589597 4.436926093575571 23.26587448200802 0 0 0
2050 1 12.754633626672636 4.323639773204018 23.24845892814585 0 0 0
2093 1 15.347275929875666 5.869623965565844 23.406369498579657 0 0 0
2054 1 17.866806185828267 4.351227682802364 23.354305108439227 0 0 0
2058 1 22.89683697941797 4.4049627561410825 23.535442805088895 0 0 0
2097 1 20.375946999819657 5.805333286409417 23.46596957613678 0 0 0
2101 1 25.5545178594174 5.902301294793877 23.415379992768017 0 0 0
2062 1 28.129392121683875 4.262757067428102 23.48577456008393 0 0 0
2105 1 30.65163805770829 5.787900116146428 23.40626213470976 0 0 0
2066 1 33.15172130562755 4.529310248340843 23.3992188501499 0 0 0
2109 1 35.79284086392846 5.859028450302349 23.476452317977515 0 0 0
2070 1 38.17967023312171 4.367948960282538 23.3890462345266 0 0 0
2074 1 43.45795260546275 4.39894958964462 23.439569638334948 0 0 0
2113 1 40.90231203952017 5.814577577052655 23.455135952265117 0 0 0
2117 1 46.0450316055543 5.8439722590941345 23.391995880298857 0 0 0
2078 1 48.4465146596157 4.4030412216494375 23.423922194404465 0 0 0
2082 1 2.4125346182390666 7.4427567008832245 23.103744084691808 0 0 0
2121 1 0.027595185423733154 8.796527237346305 23.35871807786689 0 0 0
2122 1 2.540254972319928 10.42674834128791 23.48132609832805 0 0 0
2125 1 4.951330094240927 8.865205930272452 23.351353343942122 0 0 0
2086 1 7.564994175047653 7.439511492303683 23.398267356430594 0 0 0
2126 1 7.599872045518475 10.283314587834894 23.40868401415388 0 0 0
2129 1 10.20908318166157 8.723742295264808 23.377084230974727 0 0 0
2090 1 12.761851589138123 7.318267225717603 23.325472377178777 0 0 0
2130 1 12.671561255906594 10.295216376368533 23.364251122042752 0 0 0
2133 1 15.390146846923878 8.84593670179543 23.388551546670534 0 0 0
2094 1 17.82079225562384 7.277420877390542 23.471583462649136 0 0 0
2134 1 17.929960536937557 10.477936251620209 23.468497975864484 0 0 0
2098 1 22.93722339149266 7.361638755983772 23.45219176730161 0 0 0
2137 1 20.465554750525186 8.824751428981559 23.26320421647582 0 0 0
2138 1 22.987336136193505 10.398532316350888 23.465018522953304 0 0 0
2141 1 25.579931378335402 8.863721950708769 23.376383903676558 0 0 0
2102 1 28.165707995979123 7.2427058438493335 23.399345977335997 0 0 0
2142 1 28.11812662846649 10.347844909069961 23.50247436485576 0 0 0
2145 1 30.568344498331737 8.701395162869112 23.366382047644123 0 0 0
2106 1 33.18961140204412 7.280478524871146 23.361578299184078 0 0 0
2146 1 33.287324854037166 10.252395479232474 23.281888488531898 0 0 0
2149 1 35.80266305855383 8.694819567776383 23.575097376665273 0 0 0
2110 1 38.352656626811566 7.325485116038014 23.393096112736433 0 0 0
2150 1 38.36312778952728 10.219120106524956 23.470451422394742 0 0 0
2114 1 43.36274691082579 7.314583630723345 23.422282823012463 0 0 0
2153 1 40.9648474290595 8.747947246953483 23.325368865186146 0 0 0
2154 1 43.46210430785567 10.233236547058127 23.502352154338187 0 0 0
2157 1 46.008624921317946 8.863792058846856 23.42223265887463 0 0 0
2118 1 48.559718795912175 7.408343032016168 23.377502992726683 0 0 0
2158 1 48.589383052936185 10.419871061906207 23.3561915881045 0 0 0
2161 1 -0.003041753566438883 11.78746815638477 23.337211219888722 0 0 0
2162 1 2.6276278248839393 13.21876245344055 23.36560643582829 0 0 0
2165 1 5.072345136895829 11.882976703215311 23.46671422121888 0 0 0
2166 1 7.650648136406551 13.263872908335257 23.39466032659387 0 0 0
2169 1 10.285780438244752 11.771220892398475 23.41448424759143 0 0 0
2170 1 12.751839023515807 13.280233515001521 23.392803055496486 0 0 0
2173 1 15.243806609421101 11.769146445700244 23.427780821735745 0 0 0
2174 1 17.863717747548247 13.335684198803783 23.441369074772137 0 0 0
2177 1 20.48125432416059 11.77884513739613 23.350305612474035 0 0 0
2178 1 22.960769921861846 13.297083420017351 23.49219831535972 0 0 0
2181 1 25.46311108611044 11.857074080056409 23.569234004632772 0 0 0
2182 1 28.12251824066712 13.194911556224675 23.363991434320035 0 0 0
2185 1 30.576569107359102 11.773511214341255 23.440105756588526 0 0 0
2186 1 33.235859196377305 13.172510440969459 23.498820915904265 0 0 0
2189 1 35.818774091693854 11.809324181458043 23.380103615641094 0 0 0
2190 1 38.38079725171764 13.27997878972436 23.48390662614923 0 0 0
2193 1 40.88776834442372 11.872074187854027 23.470868643594446 0 0 0
2194 1 43.5026982078743 13.215358788242202 23.421109551556043 0 0 0
2197 1 45.996159789181945 11.870995393487108 23.30627819678409 0 0 0
2198 1 48.58308526212336 13.258546200122812 23.400511045757803 0 0 0
2201 1 -0.01503181970585464 14.707226712141471 23.250869841967045 0 0 0
2202 1 2.433437708904304 16.145368348648326 23.258591487873186 0 0 0
2241 1 51.0716639741602 17.736310267231055 23.362710951744454 -1 0 0
2205 1 5.18087667704994 14.825092549196208 23.39626826075906 0 0 0
2245 1 5.105290223315074 17.66082645463444 23.46029184265601 0 0 0
2206 1 7.637713483883473 16.26342165662082 23.488652671534965 0 0 0
2209 1 10.167040734072021 14.775791176030593 23.447022958637803 0 0 0
2249 1 10.114099761133023 17.7488019625994 23.360911306660917 0 0 0
2210 1 12.80858971837135 16.337304843753543 23.415075096096704 0 0 0
2213 1 15.423582829063177 14.763397945993711 23.34397050085689 0 0 0
2253 1 15.38695093466488 17.570678658347525 23.50827506273168 0 0 0
2214 1 17.893712473418802 16.19044905801116 23.529604744962324 0 0 0
2217 1 20.398340334213547 14.868008582724816 23.406955459712616 0 0 0
2218 1 22.954990934237106 16.29736301857615 23.444479094039004 0 0 0
2257 1 20.46815075247856 17.69745936486006 23.442771239389966 0 0 0
2221 1 25.611163379481408 14.889663940137375 23.443393598869974 0 0 0
2261 1 25.557840408207003 17.729010513739944 23.359683267854006 0 0 0
2222 1 28.001151522449266 16.270609390778077 23.48742438594898 0 0 0
2225 1 30.671094711337755 14.774013802057995 23.448354257157096 0 0 0
2265 1 30.712134698941856 17.786200186256757 23.456764858134118 0 0 0
2226 1 33.31105865941505 16.275534744044336 23.386894806838228 0 0 0
2229 1 35.75598119773677 14.745478589583762 23.47121243883575 0 0 0
2269 1 35.80322049730806 17.669950569148106 23.52962542730292 0 0 0
2230 1 38.38408379746279 16.249063354964207 23.45937583166056 0 0 0
2233 1 40.904986467137576 14.722009699962003 23.403086776268502 0 0 0
2234 1 43.52549414809093 16.068440193413082 23.296664822666212 0 0 0
2273 1 40.904710723341026 17.696968308717544 23.369555560766013 0 0 0
2237 1 46.007252181125466 14.78865589563327 23.491821310098185 0 0 0
2277 1 45.92832287154131 17.62399934238268 23.265775714344603 0 0 0
2238 1 48.49656670562051 16.175202756427474 23.427037503747965 0 0 0
2242 1 2.527941880405124 19.11751258959783 23.437932035790723 0 0 0
2281 1 -0.040924478465866325 20.579733367254484 23.262610861800077 0 0 0
2285 1 5.105901424656472 20.705253454608524 23.47755627189252 0 0 0
2246 1 7.705168456191986 19.197508486596703 23.547066021916123 0 0 0
2289 1 10.279254755896481 20.697087685720327 23.361717015224535 0 0 0
2250 1 12.771722805587812 19.24217332821116 23.46416182380584 0 0 0
2293 1 15.32493816865137 20.703019027045634 23.455001923512892 0 0 0
2254 1 17.89999242866536 19.209245087979568 23.520589377520214 0 0 0
2258 1 23.04860757978864 19.139529896729925 23.35101747198229 0 0 0
2297 1 20.462453963213658 20.683349744080857 23.328489641541463 0 0 0
2301 1 25.669461886574997 20.578559769545024 23.405009846148072 0 0 0
2305 1 30.656632627425683 20.811043721177057 23.42558683278324 0 0 0
2262 1 28.166107436855768 19.204689253646116 23.380652885408807 0 0 0
2266 1 33.197729520546915 19.228633632216216 23.456285751968245 0 0 0
2309 1 35.92176458999454 20.669362935919196 23.337638454643432 0 0 0
2270 1 38.36738986728869 19.16650750635786 23.393063606419 0 0 0
2313 1 40.88519734670699 20.70520615179563 23.471128579953938 0 0 0
2274 1 43.52314410126219 19.16797166753115 23.4374395645013 0 0 0
2317 1 46.10822302831669 20.679819571316173 23.400513066974895 0 0 0
2278 1 48.57867291767428 19.00833137150672 23.38965350382959 0 0 0
2321 1 -0.04048446975195494 23.640001445884472 23.30796873459565 0 0 0
2322 1 2.630006386773561 25.01182437912243 23.41504673322288 0 0 0
2282 1 2.4787293979598526 22.149469787907897 23.372545677598488 0 0 0
2325 1 5.0110038083401705 23.591270430257772 23.447669827702974 0 0 0
2326 1 7.559139202441608 25.12482231931253 23.4715129480027 0 0 0
2329 1 10.09587759625268 23.659814708050916 23.409467678210827 0 0 0
2286 1 7.574798973369237 22.192515782356736 23.51642952177939 0 0 0
2330 1 12.736712566656614 25.106771362402142 23.377294570536296 0 0 0
2290 1 12.838840269382358 22.16007864273378 23.51160750244827 0 0 0
2333 1 15.394066313094092 23.547291099651552 23.46956338727448 0 0 0
2334 1 17.876791154008792 25.078257487745034 23.427589713474507 0 0 0
2294 1 17.884456551813077 22.218652257961786 23.38987266434419 0 0 0
2298 1 22.963530167023777 22.151240116696947 23.500592724793858 0 0 0
2337 1 20.43101904141073 23.662359265826886 23.324413941997296 0 0 0
2338 1 22.95788636579724 25.089940508521032 23.466888719953495 0 0 0
2341 1 25.55455957783466 23.574064963703684 23.447930303761577 0 0 0
2302 1 28.170737393819454 22.159887699774735 23.476058029618972 0 0 0
2342 1 28.064744085154953 24.988093546906356 23.534385745596783 0 0 0
2345 1 30.716084629333096 23.69000507732548 23.452812871178796 0 0 0
2306 1 33.25489863417478 22.089744918024536 23.425099055985584 0 0 0
2346 1 33.38199550022064 25.046033015796937 23.461941760322475 0 0 0
2349 1 35.79425532178945 23.606768767364855 23.323246390790995 0 0 0
2310 1 38.41145410986928 22.169380694219406 23.418005675126672 0 0 0
2350 1 38.36466553496234 25.140309820620658 23.47392235441395 0 0 0
2314 1 43.52076488499293 22.248724225541523 23.44152898924787 0 0 0
2353 1 41.02431798721008 23.724440997656195 23.431671412331387 0 0 0
2354 1 43.514002981124975 25.324008726567016 23.47390371225651 0 0 0
2357 1 46.05531776471058 23.695641489207986 23.45066440388412 0 0 0
2318 1 48.5870419954971 22.053206391145267 23.38110639649363 0 0 0
2358 1 48.60695189976316 25.203662895173146 23.35318776979907 0 0 0
2361 1 0.019855527895887404 26.57300653040764 23.52700470456719 0 0 0
2362 1 2.523836225565788 28.091749103476445 23.363634339247664 0 0 0
2365 1 5.176490123030985 26.59396696219808 23.484453808494948 0 0 0
2366 1 7.533094416704647 28.116045194500785 23.41256309905253 0 0 0
2369 1 10.168325919343603 26.6335616328686 23.412221023346603 0 0 0
2370 1 12.758382809823978 28.05216392984787 23.23481819315315 0 0 0
2373 1 15.478659683617552 26.4335973254316 23.441737124753956 0 0 0
2374 1 17.93979458609144 28.04819776013735 23.204213193749105 0 0 0
2377 1 20.409774026058162 26.570321582989536 23.381107054455445 0 0 0
2378 1 23.057224778717323 27.933892962349816 23.400871591974354 0 0 0
2381 1 25.514726060541584 26.486049549946088 23.525151292649646 0 0 0
2382 1 28.124251790418203 28.054910190094773 23.58843139752436 0 0 0
2385 1 30.680527849302287 26.70535326960509 23.43664680267308 0 0 0
2386 1 33.206431066362185 28.0256786962551 23.31359489452606 0 0 0
2389 1 35.9020144733188 26.465825383995494 23.244192454734062 0 0 0
2390 1 38.548887679932676 28.041682563620363 23.398077127245053 0 0 0
2393 1 41.03891248506437 26.625732027638513 23.558220054123943 0 0 0
2394 1 43.5527199009187 28.101117108280924 23.467936815655076 0 0 0
2397 1 46.084413441005765 26.64702379523669 23.347683899611532 0 0 0
2398 1 48.6095677874803 28.12146701779126 23.514881981652824 0 0 0
2003 1 0.7345931625214873 1.425245807931301 25.72608813043892 0 0 0
2441 1 50.992022344469056 2.939706044025311 28.019515053882813 -1 0 0
2401 1 51.10667782466245 0.10989840037573143 28.023776701120813 -1 0 0
2402 1 2.5318513846890744 1.4448583050818735 28.145214227594863 0 0 0
2004 1 3.390707856972684 0.08693703603190535 25.675531102985115 0 0 0
2007 1 5.956570876901413 1.5499672478196367 25.712515329900732 0 0 0
2044 1 3.33695239647472 2.96354593047625 25.717982281294493 0 0 0
2445 1 5.137189385271297 2.9408146798441437 28.048440833832206 0 0 0
2405 1 5.021980939275667 29.520209408002035 28.07882654303228 0 -1 0
2008 1 8.39563541383052 29.481701104792297 25.715824444927595 0 -1 0
2048 1 8.509773954835861 2.974295294410436 25.601698858542605 0 0 0
2449 1 10.343732957278712 2.8599844490369533 28.07063979687955 0 0 0
2406 1 7.771440636910339 1.5292897923191313 28.08187060402229 0 0 0
2409 1 10.228695988105205 29.45744267295943 27.970582474621676 0 -1 0
2052 1 13.637435718115661 2.799918634490904 25.75724755449208 0 0 0
2011 1 11.113141753664662 1.3761735877632988 25.67806328336848 0 0 0
2012 1 13.54068164222613 29.45311484197199 25.649738977324578 0 -1 0
2410 1 12.721913042385735 1.4115242182122216 28.03987597210636 0 0 0
2015 1 16.222471955813997 1.397372749325029 25.70388183093884 0 0 0
2453 1 15.298931080570409 2.884537166755305 28.168577881442545 0 0 0
2413 1 15.289585889933358 29.352211547464073 27.945205894232256 0 -1 0
2056 1 18.5148832430699 2.9688709953755574 25.648063649123763 0 0 0
2016 1 18.784430425769525 -0.009033028556613133 25.638454540985915 0 0 0
2414 1 17.876443693950062 1.4347579695056532 28.03448529260283 0 0 0
2019 1 21.368033990627676 1.6015884494254595 25.718639469007915 0 0 0
2457 1 20.436804177537383 2.977430167848524 28.13391578969235 0 0 0
2417 1 20.508487857200652 29.484108222779607 28.007606347807652 0 -1 0
2418 1 22.966617720893726 1.4375870861827575 27.990778272062506 0 0 0
2060 1 23.762082252721715 2.9834573342133472 25.700751414752773 0 0 0
2020 1 23.88458561087954 0.034291710347588975 25.657731009534814 0 0 0
2023 1 26.434005397252037 1.4571031304820208 25.77699789903748 0 0 0
2461 1 25.645891650547906 2.8526303677262344 28.1041565326246 0 0 0
2421 1 25.524067486640654 -0.02617193316605025 28.075329580465386 0 0 0
2064 1 28.940887772704 2.868650956212483 25.77541563640351 0 0 0
2024 1 28.94357439020591 29.48388198858811 25.704140318398927 0 -1 0
2422 1 28.199906350457525 1.3661060938818923 28.096985095138344 0 0 0
2425 1 30.709231702843578 29.521320497197493 27.906393456805596 0 -1 0
2465 1 30.551992635412777 2.798346391892208 28.068166054139233 0 0 0
2027 1 31.47627104870674 1.5281844407644394 25.699241014030417 0 0 0
2426 1 33.07306497723518 1.3632609776178 28.019790997224863 0 0 0
2068 1 34.012109020110955 2.8676654031749362 25.852827615703788 0 0 0
2028 1 34.2114697863922 0.0030318662009095818 25.72355010256565 0 0 0
2031 1 36.60999375984824 1.3412464261760815 25.78704297995525 0 0 0
2429 1 35.712924340571405 0.05939403979244372 28.08680636687253 0 0 0
2469 1 35.77785603317362 2.837821618826453 28.103932945113588 0 0 0
2072 1 39.077140225292425 2.9428271131301567 25.640636851441336 0 0 0
2032 1 39.248383239555224 29.517183624074278 25.75596457712746 0 -1 0
2430 1 38.330467164305816 1.4576238615263324 28.041178352816 0 0 0
2076 1 44.43284256092494 2.970851900104681 25.75665258719378 0 0 0
2035 1 41.81070534196964 1.5673215162468543 25.791363123381256 0 0 0
2036 1 44.430803272974345 29.516407116150724 25.81334097960134 0 -1 0
2433 1 40.900426787300006 29.518991514044398 28.05078564043085 0 -1 0
2434 1 43.64932475353589 1.4441999069043459 28.089521372801414 0 0 0
2473 1 40.970574395377795 2.957564169065293 28.059444978322045 0 0 0
2039 1 47.063789074206184 1.4637656187972086 25.793794707995065 0 0 0
2437 1 46.121180803264764 0.09541899499124026 28.03359188852398 0 0 0
2477 1 46.21962080457253 3.014634895481388 28.018979595014994 0 0 0
2080 1 49.401374531756744 3.028125638003768 25.629360872187895 0 0 0
2040 1 49.62535895480154 29.510087565916578 25.682061916488813 0 -1 0
2438 1 48.51487926410665 1.512523682474892 28.07622704352251 0 0 0
2043 1 0.8591603037192508 4.2749236413475575 25.667134448630513 0 0 0
2442 1 2.4630730586259157 4.3646385038923885 28.05033796328337 0 0 0
2481 1 -0.03150221759262655 5.905602867038381 27.939211687860688 0 0 0
2084 1 3.2707809101037006 5.800858149976305 25.54772628570504 0 0 0
2047 1 5.924228007602529 4.515260284819123 25.630026326620808 0 0 0
2485 1 5.063033243874825 5.957171512227123 28.03724413600736 0 0 0
2088 1 8.529378248989287 5.919692436814538 25.71129486120095 0 0 0
2446 1 7.620760307203263 4.337931006354606 28.096451714188515 0 0 0
2489 1 10.239134469676129 5.851664823209496 28.12047338070046 0 0 0
2051 1 11.061714903844821 4.380618021990885 25.870036547434733 0 0 0
2092 1 13.583256016403746 5.924497409771975 25.654498462523286 0 0 0
2450 1 12.726244815039133 4.380924822393672 28.155667203012186 0 0 0
2055 1 16.0626917315823 4.3582522863776205 25.695831233516635 0 0 0
2493 1 15.319770121426817 6.038522275483213 28.003312295845667 0 0 0
2096 1 18.6812140564499 5.820648230862373 25.809626872439495 0 0 0
2454 1 17.737083947350207 4.505232886170727 28.08485718063399 0 0 0
2059 1 21.13390439686694 4.323740391003055 25.783844548860603 0 0 0
2458 1 23.214093064095195 4.412887734734838 28.23681249420786 0 0 0
2497 1 20.32098277351825 5.8343037680660155 28.0998048490101 0 0 0
2063 1 26.35091612006702 4.561630380921092 25.80272004363595 0 0 0
2100 1 23.794539976483158 5.999073648998826 25.791420613205062 0 0 0
2501 1 25.576442106286454 5.997230291635097 28.071671339378803 0 0 0
2104 1 28.837536686616264 5.755651137546727 25.832836736068113 0 0 0
2462 1 28.065991787692212 4.465666292230236 28.09059850202913 0 0 0
2505 1 30.690293376469366 5.853273953101105 28.093936013554472 0 0 0
2067 1 31.542562184431155 4.372104755627859 25.78660962924378 0 0 0
2466 1 33.183265768089356 4.3715089897855846 28.03996199913142 0 0 0
2071 1 36.59422410587666 4.3215889983604745 25.716916282945427 0 0 0
2108 1 34.058397435371845 5.894603358981958 25.812452041639517 0 0 0
2509 1 35.615972963572816 5.76278716656691 28.13882859668351 0 0 0
2112 1 39.18303262062088 5.819295023594294 25.785054580008104 0 0 0
2470 1 38.28053750820716 4.382425725394803 27.962900895867822 0 0 0
2075 1 41.68569590164502 4.411642844171076 25.70833140001221 0 0 0
2116 1 44.32460864099346 5.881258848775561 25.838613425060274 0 0 0
2474 1 43.547884448920016 4.323517466353188 27.9802620418632 0 0 0
2513 1 40.941366698496466 5.870876261184616 28.09501469074929 0 0 0
2079 1 46.90660677736645 4.266266949581704 25.7434926030669 0 0 0
2517 1 46.03638342601137 5.878730765817427 28.06429159580714 0 0 0
2120 1 49.39744111989543 5.813436479050668 25.681834272084245 0 0 0
2478 1 48.66110755555225 4.4598286587990605 28.030466181700795 0 0 0
2083 1 0.926360089722548 7.3981505584286475 25.544359081798472 0 0 0
2123 1 0.7701395813813093 10.282295943441559 25.750293365905822 0 0 0
2482 1 2.4336705000972367 7.464525662466504 27.999385707048493 0 0 0
2521 1 51.1463901508289 8.832349145195673 28.008470521878447 -1 0 0
2522 1 2.5297695194166248 10.30688114082323 28.079696141846917 0 0 0
2087 1 5.812396648510824 7.345298544112937 25.798532170419893 0 0 0
2124 1 3.385967203560254 8.841185289251468 25.606090492547782 0 0 0
2127 1 5.782905450400851 10.36756496318432 25.71830189168421 0 0 0
2525 1 4.991811469090746 8.870710024641756 28.115800929908172 0 0 0
2128 1 8.412788995334614 8.75940388067857 25.81445894898836 0 0 0
2486 1 7.721767015172071 7.353354645111328 28.133518195016833 0 0 0
2526 1 7.4562898755751235 10.245204428120857 28.117366469914987 0 0 0
2529 1 10.244941233591097 8.926273168117207 28.21247254987792 0 0 0
2091 1 11.089910529308215 7.368156890633056 25.725315738583642 0 0 0
2131 1 11.023928283203013 10.332837732362076 25.66227111360834 0 0 0
2132 1 13.616110642558828 8.925724585434743 25.568270876765848 0 0 0
2490 1 12.729162215554203 7.303927884007666 28.01741167885794 0 0 0
2530 1 12.804995355553432 10.191920887196169 28.156319637463476 0 0 0
2095 1 16.153862278511514 7.330342961765433 25.75242281449275 0 0 0
2135 1 16.144375797990012 10.350098428186625 25.65003844550978 0 0 0
2533 1 15.327520377697613 8.873289242331753 28.106588827529237 0 0 0
2136 1 18.769824547568795 8.894818964540152 25.76593628537028 0 0 0
2494 1 17.902366416131333 7.3993052736946465 28.00442454665039 0 0 0
2534 1 17.878361597113905 10.26005611656339 28.007933841326025 0 0 0
2099 1 21.18667060642114 7.284580400915925 25.731434984495184 0 0 0
2139 1 21.283314302445344 10.251450628508898 25.666028115930256 0 0 0
2498 1 22.965914723058777 7.34067097259508 28.110437051578646 0 0 0
2537 1 20.419344257886962 8.865920534891444 28.10039263528666 0 0 0
2538 1 23.172770288740164 10.269406623014481 28.099943113031898 0 0 0
2103 1 26.502167602474145 7.524686104397033 25.650480145105018 0 0 0
2140 1 23.85463624125259 8.864690365679877 25.82466491426883 0 0 0
2143 1 26.43895043409176 10.420715780623325 25.77240381368293 0 0 0
2541 1 25.721592320368575 8.952132491901995 28.087643556923172 0 0 0
2144 1 28.98780114448712 8.886451015785978 25.64054145392177 0 0 0
2502 1 28.135683393442235 7.46893744385149 28.037351637171028 0 0 0
2542 1 28.091691492319985 10.382155278151641 28.06878968355344 0 0 0
2545 1 30.740319158828115 8.727001349617565 28.127148900937556 0 0 0
2107 1 31.550346036166022 7.279274741710168 25.731297628725088 0 0 0
2147 1 31.512462313417377 10.346733008548071 25.774238041344642 0 0 0
2506 1 33.34613891502481 7.306462988059683 28.077506328693342 0 0 0
2546 1 33.35044136145483 10.221872271519473 28.121136748655328 0 0 0
2111 1 36.643353120028735 7.293437011862236 25.729569852193663 0 0 0
2148 1 34.14515408008046 8.776644608086286 25.79469906302001 0 0 0
2151 1 36.669026503068906 10.263939461475388 25.672862161920452 0 0 0
2549 1 35.86948107713427 8.83518280939907 28.1349142138592 0 0 0
2152 1 39.290164909841025 8.811439677479436 25.886095776731356 0 0 0
2510 1 38.337694863170725 7.406687941747372 28.02552992200072 0 0 0
2550 1 38.36511575575459 10.282329422684652 28.131709291309303 0 0 0
2115 1 41.8298050994174 7.296297268033633 25.753513822753284 0 0 0
2155 1 41.77133426846753 10.287501353326103 25.681878882338346 0 0 0
2156 1 44.18994906449663 8.819059277129982 25.751651094961705 0 0 0
2514 1 43.29215079957282 7.342420714169459 28.082312534087258 0 0 0
2553 1 40.72323757260895 8.926940946681306 28.143159638168346 0 0 0
2554 1 43.383563466112506 10.369538835706441 28.115376913147024 0 0 0
2119 1 46.8627824316996 7.4098537528989095 25.676201300275032 0 0 0
2159 1 46.86733373604481 10.333644225063 25.704048984263395 0 0 0
2557 1 46.002080919124836 8.870532515894915 28.132697629860328 0 0 0
2160 1 49.459661153945376 8.79513697868583 25.67816017854971 0 0 0
2518 1 48.634796234549086 7.3282425949246015 28.059633291621083 0 0 0
2558 1 48.6603257700811 10.269789385840056 28.06167262673894 0 0 0
2163 1 0.6362883579096382 13.302499544470903 25.658402837810844 0 0 0
2561 1 51.12699717676789 11.871210259425862 28.08433135716415 -1 0 0
2562 1 2.5473827715862716 13.356169912119274 28.144785180336108 0 0 0
2164 1 3.2874563805383725 11.784903836065302 25.839095744707752 0 0 0
2565 1 4.985836397789142 11.717522787144057 28.134652959479634 0 0 0
2167 1 5.928085491580489 13.094644670898187 25.805932854497623 0 0 0
2168 1 8.533072810885074 11.808842655157257 25.64994645656195 0 0 0
2566 1 7.763782494687358 13.095074251703721 28.02742407595807 0 0 0
2569 1 10.195748488556355 11.889875113825886 28.040869084270795 0 0 0
2171 1 11.062141154489417 13.271726300527858 25.681587868435464 0 0 0
2570 1 12.825690580265617 13.175973986112195 28.125283737667534 0 0 0
2172 1 13.574118849091578 11.71405159491777 25.8367217096474 0 0 0
2175 1 16.191733983132288 13.295049505237095 25.79542493320842 0 0 0
2573 1 15.465907998585429 11.774619634509193 27.968222613838545 0 0 0
2176 1 18.7933395290145 11.92329818418805 25.686208600553474 0 0 0
2574 1 18.0749870512093 13.172365459491344 28.11917843930061 0 0 0
2179 1 21.281643472844955 13.295872845383327 25.72235472761028 0 0 0
2577 1 20.42327817328391 11.827729438149012 28.066892190610375 0 0 0
2578 1 23.06025507928802 13.221032831333634 28.086235878662375 0 0 0
2180 1 23.758863406282416 11.732522060166678 25.751755089477825 0 0 0
2183 1 26.380615355868652 13.228864144821479 25.914691770490013 0 0 0
2581 1 25.57787650464976 11.87442490695243 28.24531947218254 0 0 0
2184 1 29.033088216022133 11.838244476221076 25.920700211673406 0 0 0
2582 1 28.03653412804411 13.42411688046313 28.1632725610299 0 0 0
2585 1 30.76471353917905 11.772983786667282 28.110656641143514 0 0 0
2187 1 31.460675082932287 13.178140578408344 25.684803800532706 0 0 0
2586 1 33.22641389758704 13.18032558752329 27.99070935811603 0 0 0
2188 1 34.121184995378144 11.819806652802406 25.64144767964415 0 0 0
2191 1 36.642901482900484 13.17687817707561 25.706425142872998 0 0 0
2589 1 35.92465585481044 11.720179359791086 28.102982772925433 0 0 0
2192 1 39.18235722986539 11.907024849572432 25.78689529803339 0 0 0
2590 1 38.28697482595307 13.339953789528703 28.04977702721183 0 0 0
2195 1 41.808072047312635 13.475187544373464 25.76246911050768 0 0 0
2196 1 44.34770430991142 11.757584680328629 25.723876362039906 0 0 0
2593 1 40.90991933607023 11.832937574991693 28.14597139279989 0 0 0
2594 1 43.47352292144356 13.331769993447697 28.116401076874613 0 0 0
2199 1 46.83661225776518 13.37077039302543 25.66770487465236 0 0 0
2597 1 46.06193285982788 11.775757936960286 27.974260784379272 0 0 0
2200 1 49.375252725546346 11.79340254824468 25.76168269580536 0 0 0
2598 1 48.5805286225297 13.218657642698306 27.970924022855606 0 0 0
2203 1 0.8188680812120825 16.212089833020954 25.64142789939901 0 0 0
2641 1 0.006255851193993522 17.659716740387076 28.036051761288018 0 0 0
2601 1 0.09658964754510696 14.79140995682043 27.989575771614387 0 0 0
2602 1 2.6370155049226383 16.137178925022482 28.102532774635705 0 0 0
2204 1 3.350040097308294 14.698274932412295 25.726358638721535 0 0 0
2207 1 5.855676322578433 16.19269060973506 25.75286862538045 0 0 0
2244 1 3.2711268400858775 17.584556374464043 25.556633512821488 0 0 0
2645 1 5.1714007604281065 17.634848203879635 28.06632223420344 0 0 0
2605 1 5.117510707638126 14.66882761393912 28.063521125463573 0 0 0
2208 1 8.546543333482235 14.73670953857836 25.597317520802964 0 0 0
2248 1 8.591128201193381 17.664836664164824 25.73306465555999 0 0 0
2649 1 10.334654559987474 17.772173952295823 28.040002702597135 0 0 0
2606 1 7.718863908380441 16.08649113770977 27.871874027919944 0 0 0
2609 1 10.170943517559053 14.728211700539216 28.08840133985562 0 0 0
2211 1 11.139143219534489 16.272692497758463 25.800748949027025 0 0 0
2212 1 13.559982773337175 14.725536102352649 25.817057952648053 0 0 0
2252 1 13.571722441615782 17.76241151042168 25.775437260853526 0 0 0
2610 1 12.865365192023255 16.25801403776625 28.17783314931677 0 0 0
2215 1 16.17869349164619 16.192650068987405 25.96239895442482 0 0 0
2653 1 15.404183097659265 17.78298829862893 28.29236478376418 0 0 0
2613 1 15.452157037875883 14.749442303305498 28.119492822321785 0 0 0
2216 1 18.777214305744756 14.831438351774297 25.74724154007337 0 0 0
2256 1 18.691654180867864 17.741963882319055 25.938679532612564 0 0 0
2614 1 17.91593826905994 16.167556273504808 28.148560753531292 0 0 0
2219 1 21.331426240605577 16.146928850698004 25.73578171810288 0 0 0
2657 1 20.521325751229135 17.817550729572346 28.119076904847486 0 0 0
2617 1 20.512957441823467 14.813121218982467 28.067490066739595 0 0 0
2618 1 23.103651473520532 16.10158408954858 28.027445870539747 0 0 0
2220 1 23.879609504987084 14.75551695347782 25.68863021260751 0 0 0
2223 1 26.365495384392307 16.28752891232326 25.78392543334654 0 0 0
2260 1 23.82174943440045 17.804329154638104 25.624137687004424 0 0 0
2661 1 25.537194687867874 17.825442221247734 28.123128061411318 0 0 0
2621 1 25.672484387791428 14.89406588038661 28.134649709603444 0 0 0
2224 1 28.784257965727285 14.789210176947744 25.750994696102588 0 0 0
2264 1 29.023983179532838 17.696277267105238 25.758414580820403 0 0 0
2625 1 30.700566404941203 14.744817575853803 28.188868649912372 0 0 0
2665 1 30.565952779643904 17.618328281597726 28.004792917923933 0 0 0
2622 1 28.13234126106307 16.2489055953504 28.15979851888354 0 0 0
2227 1 31.56416696507299 16.20954148171309 25.7558693370588 0 0 0
2626 1 33.206584828033854 16.158637159331434 28.04495686628353 0 0 0
2228 1 34.00713537646746 14.717320295925798 25.67674866136385 0 0 0
2231 1 36.70367829480338 16.220680970774893 25.741254966431708 0 0 0
2268 1 34.08647566234711 17.86180575630945 25.758068073729852 0 0 0
2629 1 35.81715300362188 14.853666329509176 27.972953295659458 0 0 0
2669 1 35.863663708592014 17.80420182794952 28.000744851600444 0 0 0
2232 1 39.23424946203127 14.713500218743922 25.834919565876 0 0 0
2272 1 39.183278530852746 17.696283323882668 25.69918640620915 0 0 0
2630 1 38.35566704712613 16.265015823817684 28.08245331075726 0 0 0
2235 1 41.77357755888154 16.307975134402326 25.749138327267225 0 0 0
2236 1 44.18153583355581 14.799885806458075 25.800953032513817 0 0 0
2276 1 44.297981119150165 17.531204499852073 25.74262111909171 0 0 0
2633 1 40.97457073737729 14.96852438364101 28.12254525764134 0 0 0
2634 1 43.474607929404556 16.31272085756897 28.273771665352815 0 0 0
2673 1 40.85242920827888 17.716053516316947 28.074806134468055 0 0 0
2239 1 46.86852391798736 16.119749206805018 25.787025832365963 0 0 0
2637 1 46.07722817660067 14.722030713033874 28.087934642036394 0 0 0
2677 1 46.092033092434264 17.79605691598342 28.08127192994193 0 0 0
2240 1 49.378713002488965 14.841783226600638 25.59506408863976 0 0 0
2280 1 49.33851158867924 17.72140833376092 25.697361665042116 0 0 0
2638 1 48.68809058900129 16.169534751901296 28.02233192714632 0 0 0
2243 1 0.8810803043996317 19.232054899594807 25.706225246157167 0 0 0
2642 1 2.535048779282116 19.119098940196892 27.991132660390324 0 0 0
2681 1 51.15267258249506 20.587569294934937 27.954226201253395 -1 0 0
2247 1 5.868973925620976 19.199056773903557 25.73514131610477 0 0 0
2284 1 3.335112500704383 20.666060494552667 25.67269111968066 0 0 0
2685 1 5.073544864609248 20.628918402558256 28.101963280400838 0 0 0
2689 1 10.322238341227449 20.642700605574262 28.06306395427409 0 0 0
2288 1 8.621585950839409 20.611532884782285 25.82893165986014 0 0 0
2646 1 7.543178081847992 19.095689712598087 28.05246006024764 0 0 0
2251 1 11.186310867246949 19.23864631747618 25.75074384179696 0 0 0
2292 1 13.604748974801256 20.549708248517426 25.795327453420924 0 0 0
2650 1 12.870528888187136 19.205791072763112 28.20190021010409 0 0 0
2693 1 15.324991252838203 20.70217824700815 28.225190698783965 0 0 0
2255 1 16.262514560236877 19.146407554325243 25.738899357652933 0 0 0
2296 1 18.81499684034921 20.715114648988582 25.794778662391586 0 0 0
2654 1 17.931102716577062 19.232392648933143 28.11379793359417 0 0 0
2697 1 20.420392697348813 20.664833347736206 28.21620163824465 0 0 0
2259 1 21.33089987763431 19.176351216047344 25.787179702692345 0 0 0
2658 1 23.06261702889337 19.310790854281613 28.131083054476434 0 0 0
2701 1 25.531631320623106 20.68121784448875 28.143362933726436 0 0 0
2263 1 26.370722474884136 19.16335146588385 25.771302630723845 0 0 0
2300 1 23.767886469553982 20.727065808592528 25.62846546773331 0 0 0
2705 1 30.651301229016976 20.752523754792605 28.094854328513126 0 0 0
2304 1 28.812240975380245 20.642393198818304 25.708857972789456 0 0 0
2662 1 28.12709069937796 19.231950825500036 28.19376288577948 0 0 0
2267 1 31.52451536755197 19.37711658782178 25.81745378264291 0 0 0
2666 1 33.11240711000464 19.15558722137019 28.075340393142753 0 0 0
2308 1 34.09325010768819 20.817373193366308 25.754916775063183 0 0 0
2709 1 35.89049761133103 20.669461523029995 27.99475888224317 0 0 0
2271 1 36.71015993439504 19.31173638278957 25.756306069486246 0 0 0
2312 1 39.29463502996312 20.65105062400672 25.674877548642353 0 0 0
2670 1 38.3621641047108 19.188357393756185 27.987955862283595 0 0 0
2316 1 44.37639992189922 20.68088666891299 25.78194393805986 0 0 0
2713 1 40.8908193150603 20.6740490251361 28.21169144344828 0 0 0
2275 1 41.775840169621176 19.209662179374924 25.69738626675571 0 0 0
2674 1 43.347663067360884 19.20644567836152 28.049391877385997 0 0 0
2717 1 46.07168945136989 20.63148319958433 28.033063237253497 0 0 0
2279 1 46.83164292349575 19.19464225337697 25.565905961976778 0 0 0
2320 1 49.482457755498885 20.65726097759324 25.626409907112382 0 0 0
2678 1 48.557654175375504 19.204959147385644 28.051017146286554 0 0 0
2323 1 0.8963892928527035 25.106258563387406 25.743521371174484 0 0 0
2283 1 0.8147009933741671 22.218694501984295 25.737793686880025 0 0 0
2721 1 0.11725712373180738 23.542476630259245 28.113968842174522 0 0 0
2722 1 2.5200598722867538 25.127038764461496 28.128545755430835 0 0 0
2682 1 2.521127025941113 22.09992623005771 28.04993274225551 0 0 0
2324 1 3.397652380044048 23.593961035648633 25.72817690957151 0 0 0
2327 1 5.909922057840832 25.07166873781128 25.929032159356883 0 0 0
2287 1 5.992533945528862 22.095818425435077 25.75982730087561 0 0 0
2725 1 5.1925794322369185 23.546539301843815 28.068796883081276 0 0 0
2328 1 8.413274298105872 23.578688906866418 25.874337421605997 0 0 0
2726 1 7.7015837175435955 25.11567649024861 28.032381507322764 0 0 0
2729 1 10.299968478727992 23.655703534658542 28.07020536877779 0 0 0
2686 1 7.683185526281982 22.07251411846228 28.112517451286255 0 0 0
2331 1 11.09730946597491 24.94836237155026 25.660648863701116 0 0 0
2332 1 13.640977194708709 23.519926037030416 25.678259242776885 0 0 0
2690 1 12.796147482316146 22.05580370686681 28.250102622287766 0 0 0
2291 1 11.13821876536952 22.100980667373797 25.778632510156797 0 0 0
2730 1 12.705187518383724 25.009911605697702 27.908835816253976 0 0 0
2335 1 16.157920043599642 25.011248155961347 25.760585290742803 0 0 0
2295 1 16.193218929226543 22.113787637122996 25.798189551398362 0 0 0
2733 1 15.28671801509957 23.583233897978836 28.117860347086662 0 0 0
2336 1 18.6988932311659 23.482184975098107 25.874557886787922 0 0 0
2694 1 17.96171708801068 22.172217840720577 28.171761874113358 0 0 0
2734 1 17.938524077167365 25.089785869910123 28.218045228997646 0 0 0
2698 1 22.86172946017569 22.247147065199712 28.156294504199202 0 0 0
2299 1 21.218708482796806 22.145512332112027 25.69405320819426 0 0 0
2339 1 21.33403100571345 25.042704343552394 25.664507164636305 0 0 0
2737 1 20.391886496134155 23.59615562089484 28.021657378224315 0 0 0
2738 1 22.87406766819979 25.16645976913844 28.162632931977523 0 0 0
2303 1 26.2838843383907 21.98126344508458 25.760077750442374 0 0 0
2340 1 23.847701175231578 23.689904299695392 25.847977916352082 0 0 0
2343 1 26.420098171512276 25.191699748663616 25.825892961647156 0 0 0
2741 1 25.551929391182114 23.634109217573588 28.086358004184802 0 0 0
2702 1 28.15689824262608 22.234929941949957 28.02714771493964 0 0 0
2344 1 29.050821506899975 23.667426493252066 25.791188657584886 0 0 0
2742 1 28.054794430991926 25.009725048306862 28.008044526610664 0 0 0
2745 1 30.678337085220427 23.757083876830222 28.04695241659748 0 0 0
2307 1 31.63434713122906 22.29227772044662 25.852571295779683 0 0 0
2706 1 33.29304193425527 22.297234528488637 28.142435657898222 0 0 0
2347 1 31.664488305646827 25.18017365419078 25.88600170750537 0 0 0
2746 1 33.2148196987783 25.32728518553415 28.16158996086478 0 0 0
2311 1 36.7327714726062 22.049769037430373 25.845101792598125 0 0 0
2348 1 34.11667980836481 23.65501966864658 25.74568050733253 0 0 0
2351 1 36.639682956097374 24.994413090901737 25.754862221616033 0 0 0
2749 1 35.779855105362486 23.666566037797807 28.105304546168593 0 0 0
2710 1 38.36467453759272 22.222003473645636 28.03805794073759 0 0 0
2352 1 39.25714728358075 23.792831206381884 25.813026787845416 0 0 0
2750 1 38.4663896437265 25.074415715605284 28.146939531190103 0 0 0
2315 1 41.818154972378366 22.12864537047431 25.707905426212456 0 0 0
2714 1 43.44937750442543 22.21541909846796 28.110849857212 0 0 0
2355 1 41.80819677354572 25.064325821365017 25.829870404157738 0 0 0
2356 1 44.23474688007953 23.70910301682204 25.844846341337643 0 0 0
2753 1 40.86815875039285 23.673651956972876 28.181960846157107 0 0 0
2754 1 43.520312205342776 25.17193841223743 28.06433917607476 0 0 0
2319 1 46.80899655896255 22.14467374357899 25.682217199803727 0 0 0
2359 1 46.817142570508906 25.08981957288492 25.778069783204366 0 0 0
2757 1 45.983889075521844 23.591796736201353 28.162649196317496 0 0 0
2718 1 48.66554556559245 22.19191759211124 28.08029058155749 0 0 0
2360 1 49.54136906310909 23.545710837036452 25.6474357341824 0 0 0
2758 1 48.486233439626304 25.05734954957513 28.12346071423824 0 0 0
2363 1 0.8171910629894896 28.183665143899205 25.733493909352923 0 0 0
2761 1 0.0389427072701998 26.766517920533552 28.03090128128728 0 0 0
2762 1 2.5427870844723857 28.13220037368955 28.075299431879053 0 0 0
2364 1 3.4137238134536654 26.535355035376448 25.749261616756517 0 0 0
2367 1 5.907099818227766 28.123131799865604 25.704875777162766 0 0 0
2765 1 5.043215939885655 26.653121436566977 28.174100052042935 0 0 0
2368 1 8.425912520624923 26.61366951408283 25.78283238059373 0 0 0
2766 1 7.678319275276098 27.98860169389802 27.98088995401128 0 0 0
2769 1 10.366300995799895 26.469982988760698 28.019988355423283 0 0 0
2371 1 10.933565235811129 28.01554006314842 25.625278897906874 0 0 0
2372 1 13.593891660377155 26.487780253140137 25.66759803025515 0 0 0
2770 1 12.672038595834442 27.950409044424354 27.960452919073255 0 0 0
2375 1 16.212460598079826 28.07078145690035 25.570649751666203 0 0 0
2773 1 15.297458865908341 26.540775397431986 27.97412207887219 0 0 0
2376 1 18.718053485688294 26.459875427072745 25.76834900342288 0 0 0
2774 1 17.827408901194556 28.061367517044076 27.91959877590423 0 0 0
2379 1 21.357466984692874 27.96183571562628 25.64928464062841 0 0 0
2777 1 20.428954115694125 26.518245685789978 27.91066424443252 0 0 0
2778 1 22.980737963712297 28.115529423722457 28.055281242317125 0 0 0
2380 1 23.804747853970323 26.53617236041243 25.812177741854608 0 0 0
2383 1 26.372582053463272 28.12924231359075 25.907524935974486 0 0 0
2781 1 25.485646362071368 26.611598409579877 28.184119947358667 0 0 0
2384 1 29.014224888245696 26.522794659730316 25.903338649499 0 0 0
2782 1 28.247671544941344 28.005813040909615 28.17986500030814 0 0 0
2785 1 30.679116620130618 26.669036266906545 28.131352044248768 0 0 0
2387 1 31.53541843489976 28.063041774310612 25.673979193587698 0 0 0
2786 1 33.20632917391147 28.10680688602067 28.018657823711635 0 0 0
2388 1 34.14145926030291 26.596259988677055 25.64789592860106 0 0 0
2391 1 36.833583774561816 27.978042566203705 25.744026746014317 0 0 0
2789 1 35.89747001882827 26.56702459376266 28.076391878592183 0 0 0
2392 1 39.240350828004395 26.571079032275343 25.814638603034194 0 0 0
2790 1 38.33776550130072 28.1495654826211 28.099432225705343 0 0 0
2395 1 41.85402707500408 28.077213715004852 25.807313373681588 0 0 0
2396 1 44.303802881834685 26.532954189492628 25.78934227714904 0 0 0
2793 1 40.87833839805933 26.538626492955522 28.08070965892727 0 0 0
2794 1 43.54550032301559 28.096528063060653 28.126082981812395 0 0 0
2399 1 46.98837110926377 28.031787070879716 25.64323681483981 0 0 0
2797 1 46.01548476899609 26.724981945928945 28.029119771378205 0 0 0
2400 1 49.51559418099751 26.502673077988526 25.68080257574413 0 0 0
2798 1 48.62145216225031 28.003450410640525 27.926707652748586 0 0 0
2403 1 0.8433807474567608 1.6008927596004818 30.322228644993714 0 0 0
2444 1 3.2523660772247087 3.140166063082975 30.3565034641745 0 0 0
2404 1 3.3985817527856117 0.1136836298229991 30.520774528033463 0 0 0
2407 1 6.091773916926379 1.4256776932473736 30.360352885249554 0 0 0
2448 1 8.521189638186096 3.0044276944037396 30.47250633521641 0 0 0
2408 1 8.579838902426296 29.481596056044985 30.426140401438392 0 -1 0
2452 1 13.669908752756976 2.8334568765549313 30.424744178686232 0 0 0
2411 1 11.120462703880937 1.262843572617589 30.296042239116677 0 0 0
2412 1 13.550970907652571 29.306319876310614 30.44367615308632 0 -1 0
2415 1 16.129346585623704 1.392860382672709 30.34275259142531 0 0 0
2456 1 18.744619885256764 2.8885295152268404 30.52071040904479 0 0 0
2416 1 18.824897396060486 -0.01138487489396187 30.325283968592363 0 0 0
2419 1 21.277177308588907 1.329607380917122 30.429863738387343 0 0 0
2460 1 23.909700671857944 2.842963244061677 30.391725653578323 0 0 0
2420 1 23.820200438412595 29.454428242657553 30.43837756795867 0 -1 0
2423 1 26.53819315247639 1.478418014642073 30.306644813581713 0 0 0
2464 1 28.93309623492137 2.906771094352356 30.565358058565415 0 0 0
2424 1 28.918748063434247 29.407333207528477 30.49366500206209 0 -1 0
2427 1 31.416618834748192 1.4730692475464884 30.350513479759215 0 0 0
2428 1 34.14720702016638 29.478230408589468 30.378264607215517 0 -1 0
2431 1 36.64189203575519 1.5290284248918953 30.475317923567452 0 0 0
2468 1 34.029320051468986 2.9231513211556392 30.468977669682904 0 0 0
2432 1 39.11612122055709 0.06734629475713685 30.517225566541285 0 0 0
2472 1 39.28277533877521 2.904052115575792 30.346386318302628 0 0 0
2435 1 41.80781904201264 1.4717859584329398 30.40753136924938 0 0 0
2436 1 44.29850589659924 0.15320327900113476 30.342979373175776 0 0 0
2476 1 44.435505297537816 3.0184328552195767 30.349610767831486 0 0 0
2439 1 46.86692749437745 1.511201697099453 30.43124730064016 0 0 0
2440 1 49.42808684758771 -0.0043280670117302675 30.250845279345185 0 0 0
2480 1 49.44907698053544 2.9601349981867293 30.493204732440606 0 0 0
2443 1 0.6858485255233402 4.604859118776637 30.408964358668758 0 0 0
2447 1 5.80363929313501 4.421863558947555 30.410244012016815 0 0 0
2484 1 3.262417907562533 5.999022504115721 30.32566245936669 0 0 0
2488 1 8.4678858092667 5.897058630984701 30.446541131492992 0 0 0
2451 1 11.11686697613981 4.341687100180598 30.41899350655716 0 0 0
2492 1 13.570423502371954 5.802723934807834 30.27485795881399 0 0 0
2455 1 16.102641581386056 4.525903071822538 30.34465415094974 0 0 0
2496 1 18.649529546180236 5.868632533076203 30.348992798380984 0 0 0
2459 1 21.30447570012644 4.287330184975665 30.44707963739537 0 0 0
2463 1 26.29434548291811 4.411210881821765 30.41363480792607 0 0 0
2500 1 23.83646740706614 5.887236486723233 30.556360768127195 0 0 0
2504 1 28.89154580956147 5.905829248321458 30.57911126943856 0 0 0
2467 1 31.521896668431562 4.50411969401057 30.60979270741665 0 0 0
2471 1 36.60063497991209 4.333249907292895 30.365020132818376 0 0 0
2508 1 34.12081847378941 5.839286691788356 30.571161769020165 0 0 0
2512 1 39.19919090300452 5.730744153036085 30.39006140855838 0 0 0
2475 1 41.764318886986516 4.38052610342459 30.294812178047092 0 0 0
2516 1 44.29525133911184 5.880783407870434 30.394685777654775 0 0 0
2479 1 46.951427133370345 4.551115781786355 30.403236419513373 0 0 0
2520 1 49.45584291470871 5.943028472326425 30.31016088726218 0 0 0
2483 1 0.7011061931250729 7.319769634034082 30.326984075150463 0 0 0
2523 1 0.8176550749663103 10.308931077395883 30.380756684770596 0 0 0
2487 1 5.835485950457318 7.35978651805499 30.347660628468848 0 0 0
2524 1 3.2397463960870567 8.973007950000245 30.51672114069141 0 0 0
2527 1 5.758982971187619 10.38607557437035 30.472737224462293 0 0 0
2528 1 8.355457367734804 8.693827783335221 30.310352373992867 0 0 0
2491 1 10.939029739575115 7.353487322105275 30.36142991165661 0 0 0
2531 1 11.02643647070782 10.30721911725114 30.425375805000034 0 0 0
2532 1 13.558859023778489 8.78472672151641 30.418401339676002 0 0 0
2495 1 16.20552360552974 7.4484208397033145 30.489672371283255 0 0 0
2535 1 16.264450564078523 10.264048953542796 30.325349118114495 0 0 0
2536 1 18.696478125179723 8.843341609839706 30.395209631284164 0 0 0
2499 1 21.19181841646356 7.348481070856399 30.397440234129093 0 0 0
2539 1 21.263565359666824 10.347558404884929 30.43489955590708 0 0 0
2503 1 26.44717037915326 7.372951930723486 30.353665356610687 0 0 0
2540 1 23.797770870634135 8.812083574501393 30.454194507467907 0 0 0
2543 1 26.424730110551852 10.281016435601162 30.305627756371997 0 0 0
2544 1 29.023145502287026 8.879770506170924 30.42206044646933 0 0 0
2507 1 31.54424682435318 7.362226479739117 30.403959905855817 0 0 0
2547 1 31.799112796282405 10.31938990632234 30.421200235571977 0 0 0
2511 1 36.57872129202231 7.3477405138845 30.41774415936556 0 0 0
2548 1 34.13246824059844 8.751923184714418 30.464140379841325 0 0 0
2551 1 36.69227588465523 10.309577631281817 30.515084875513125 0 0 0
2552 1 39.176660725427425 8.794823761783524 30.517007670028374 0 0 0
2515 1 41.70175506513367 7.437823457882683 30.432202620645835 0 0 0
2555 1 41.71570994530691 10.264568622888701 30.38491284975913 0 0 0
2556 1 44.286885104147714 8.848472768748435 30.375561186635842 0 0 0
2519 1 46.82894408349847 7.416446786421169 30.318546235884035 0 0 0
2559 1 46.671739696211446 10.35353481834966 30.359728913095033 0 0 0
2560 1 49.376997009004285 8.913835023020324 30.469872774914585 0 0 0
2563 1 0.8551052996610428 13.348083150617633 30.433753505669443 0 0 0
2564 1 3.303920352014728 11.941045043703028 30.5474308743289 0 0 0
2567 1 5.8560073823364664 13.3564680785345 30.459917572810895 0 0 0
2568 1 8.331791296503994 11.741256906096663 30.40137322606998 0 0 0
2571 1 11.154700047720132 13.291351210966742 30.337195343107844 0 0 0
2572 1 13.6378502204938 11.664266423596963 30.35342652451535 0 0 0
2575 1 16.290832336311126 13.2269617042371 30.30289525676267 0 0 0
2576 1 18.885972970877962 11.684373306116376 30.446356940576635 0 0 0
2579 1 21.138112672300615 13.304933780192274 30.409734133508852 0 0 0
2580 1 23.904690629115887 11.801249730978691 30.656190310847208 0 0 0
2583 1 26.411816068300226 13.277576845845335 30.530634104910956 0 0 0
2584 1 29.116529167361488 11.773096892496321 30.435584389487683 0 0 0
2587 1 31.520660201712758 13.372851183186933 30.39742813428349 0 0 0
2588 1 34.33798075873925 11.764506223385826 30.3898411020681 0 0 0
2591 1 36.653732352909444 13.363415694744964 30.352340396960273 0 0 0
2592 1 39.30324521850956 11.866507269407066 30.42296039790435 0 0 0
2595 1 41.847711448162556 13.355937098772634 30.333270648805957 0 0 0
2596 1 44.16770782456942 11.755116199327114 30.427710049433138 0 0 0
2599 1 46.911309154627816 13.26449392398093 30.55875318760446 0 0 0
2600 1 49.50062696816137 11.794391800773107 30.44603657851673 0 0 0
2603 1 0.6831016507549867 16.242837069080686 30.411956109567072 0 0 0
2644 1 3.4009750669043015 17.797437432687474 30.471453756239942 0 0 0
2604 1 3.4472804360610034 14.946331000398235 30.478036737291312 0 0 0
2607 1 5.984070318822091 16.181718755423375 30.505592529805096 0 0 0
2648 1 8.5385553578471 17.626103345039 30.334710247104503 0 0 0
2608 1 8.484842204458088 14.72844253451857 30.271266926043907 0 0 0
2652 1 13.69343693966142 17.768575565836045 30.557862872809327 0 0 0
2611 1 11.027631634927753 16.367812190218594 30.386210208098003 0 0 0
2612 1 13.618093370971057 14.818743068817232 30.337593641570784 0 0 0
2615 1 16.186881564174968 16.203094932122426 30.45707622929024 0 0 0
2656 1 18.76216343407862 17.74564979829531 30.438988197875723 0 0 0
2616 1 18.739202730644596 14.655454062501011 30.516234187575947 0 0 0
2619 1 21.420908152055482 16.31006879729089 30.453565753692587 0 0 0
2660 1 23.87917199219298 17.662547633969282 30.49444308614196 0 0 0
2620 1 23.83449066669011 14.7344318903567 30.488872406730668 0 0 0
2623 1 26.33599323212927 16.200362637050837 30.436922497063364 0 0 0
2664 1 29.08312316789461 17.68260428614707 30.518132874934526 0 0 0
2624 1 28.875981233754686 14.835540790638989 30.538688494702612 0 0 0
2627 1 31.511244108028087 16.102073451475363 30.475593452553326 0 0 0
2628 1 34.24568259167317 14.70594292814985 30.37624285285287 0 0 0
2631 1 36.73038426835508 16.255663607834528 30.43123325754573 0 0 0
2668 1 34.04840927393771 17.734132863115555 30.313292922555636 0 0 0
2632 1 39.17429540346777 14.68115639959256 30.46492444220907 0 0 0
2672 1 39.20565109814673 17.641842075536346 30.50133144469391 0 0 0
2635 1 41.593158060338396 16.207459799630215 30.504079861036395 0 0 0
2636 1 44.39871753496084 14.765734430123729 30.475179466175963 0 0 0
2676 1 44.19614925402057 17.838863614262245 30.334835677780987 0 0 0
2639 1 46.855444652589895 16.304233775759776 30.42430529559494 0 0 0
2640 1 49.46378493280761 14.830150433360794 30.233540042129253 0 0 0
2680 1 49.42906169050089 17.806118272529105 30.418991058145004 0 0 0
2643 1 0.739589827249702 19.279278799531383 30.187715644767305 0 0 0
2647 1 5.883618541657622 19.141961391185113 30.47140462799901 0 0 0
2684 1 3.328720843606536 20.594830400920294 30.499525335824032 0 0 0
2688 1 8.427030197955524 20.5927027493928 30.47797662521734 0 0 0
2692 1 13.656590148271551 20.659207069708238 30.62729569252649 0 0 0
2651 1 10.998902962833887 19.112482917010645 30.42576657688361 0 0 0
2655 1 16.353500508781806 19.129569690320082 30.517084741970987 0 0 0
2696 1 18.87120874433623 20.745495849885785 30.504695990888024 0 0 0
2659 1 21.397312968190725 19.215651730747325 30.518536923051464 0 0 0
2700 1 23.733085628069976 20.689257160089547 30.525843051921207 0 0 0
2663 1 26.468688278326276 19.195390171048338 30.517800129795432 0 0 0
2704 1 29.057842511062805 20.699083353714123 30.47090889533039 0 0 0
2667 1 31.560462260759294 19.072299176472633 30.4428142611847 0 0 0
2708 1 34.03792085033986 20.511124541813466 30.403448293517055 0 0 0
2671 1 36.60623550058695 19.245968539932583 30.43330454048241 0 0 0
2712 1 39.160217441182326 20.614874933922223 30.473177872188987 0 0 0
2716 1 44.37882011428118 20.55829968065381 30.415914026614598 0 0 0
2675 1 41.71354996149512 19.087854484172645 30.386031458756577 0 0 0
2679 1 46.79829055959959 19.1828730315437 30.5134468523364 0 0 0
2720 1 49.38925994937949 20.68815138941452 30.41816531528244 0 0 0
2723 1 0.7398900655210426 25.135558698144486 30.448592230977784 0 0 0
2683 1 0.7656078649763673 22.075492598723933 30.43915712318387 0 0 0
2724 1 3.322413006889043 23.577272495250263 30.41311993306976 0 0 0
2727 1 5.973023641529204 25.19786106097321 30.402926010053854 0 0 0
2687 1 5.978528206643055 22.107004937996393 30.518773123949313 0 0 0
2728 1 8.570757994898285 23.53177933369279 30.36692968225579 0 0 0
2691 1 10.921031744709287 22.037424925771013 30.42211514535241 0 0 0
2731 1 11.13758344745434 25.08608676419408 30.458506283226573 0 0 0
2732 1 13.578295737012583 23.502815996702594 30.499042108027734 0 0 0
2695 1 16.052635049362927 22.244251345332806 30.43774583491805 0 0 0
2735 1 16.143520619848555 25.29897957823743 30.3370860084661 0 0 0
2736 1 18.760072197160788 23.639492577814593 30.403792762862242 0 0 0
2699 1 21.379432263201842 22.235548951915213 30.52121495152875 0 0 0
2739 1 21.304128499432537 25.179477726303844 30.544643439752356 0 0 0
2703 1 26.509402668767144 22.09837788156137 30.442405662037817 0 0 0
2740 1 23.896204298225427 23.521089538100867 30.40455203351858 0 0 0
2743 1 26.340732416833667 25.097042918447286 30.427849101560756 0 0 0
2744 1 29.019337761241257 23.54629084032065 30.491301903095277 0 0 0
2707 1 31.590010391078675 22.142603512809856 30.451351726690277 0 0 0
2747 1 31.525417018115412 25.085160235193953 30.430064655367502 0 0 0
2711 1 36.632725836039754 22.083183129577527 30.27500240164878 0 0 0
2748 1 34.25090979908633 23.67154380768455 30.542677382038764 0 0 0
2751 1 36.74991916281266 25.151379745840288 30.533610104418845 0 0 0
2752 1 39.20388349402718 23.574198645189476 30.499667062654023 0 0 0
2715 1 41.91093213426669 22.112756729289913 30.635993069316765 0 0 0
2755 1 41.765997226595545 25.165333892089762 30.5116538331875 0 0 0
2756 1 44.319908576481026 23.606976040663177 30.54160651938069 0 0 0
2719 1 46.95731866665005 22.390970107545947 30.468033524093116 0 0 0
2759 1 46.850770149649705 25.174323979494545 30.304107521283072 0 0 0
2760 1 49.521292818543714 23.569926620082462 30.49066903152746 0 0 0
2763 1 0.9289982190217031 28.113453780391914 30.379882169603718 0 0 0
2764 1 3.469408314154564 26.639215154859777 30.44638224827065 0 0 0
2767 1 6.1422652772863415 28.07289465693472 30.454698295628344 0 0 0
2768 1 8.573166699737977 26.473076966960008 30.408953554980098 0 0 0
2771 1 11.036380520777604 27.866979053010255 30.442248778219245 0 0 0
2772 1 13.603315381175333 26.484380333495395 30.454227888449005 0 0 0
2775 1 16.105248316311155 28.038882161823217 30.364550988236157 0 0 0
2776 1 18.660507947971414 26.645139469903697 30.494055257855237 0 0 0
2779 1 21.32259036908387 28.114391317494615 30.4624056869639 0 0 0
2780 1 23.795866398416376 26.70660279153291 30.455459819480243 0 0 0
2783 1 26.425490685832585 28.112187862453354 30.43662138041204 0 0 0
2784 1 28.956250267397024 26.592754373961967 30.514164223776646 0 0 0
2787 1 31.48417966862145 28.123662292674865 30.365585569752835 0 0 0
2788 1 34.31345410274706 26.62314911688776 30.455597967290245 0 0 0
2791 1 36.76358633812134 28.177515228169966 30.523871595182268 0 0 0
2792 1 39.24424471155518 26.595274745134006 30.520811124379996 0 0 0
2795 1 41.73093848035937 28.16905395044759 30.47534662411856 0 0 0
2796 1 44.349346334467384 26.718261971960345 30.387660804796674 0 0 0
2799 1 46.91595246665548 28.03913088778185 30.468570511876287 0 0 0
2800 1 49.504825790686766 26.611923557801816 30.259770308544514 0 0 0
2841 1 51.14687946727849 3.035181383725391 32.77509597336341 -1 0 0
2801 1 51.10142964119927 -0.03124951297317793 32.72270256346746 -1 0 0
2802 1 2.479769130557406 1.4841764794717245 32.83289546273096 0 0 0
2803 1 0.6492694364156725 1.4324198285454988 34.99125314283273 0 0 0
2844 1 3.341281482931038 2.8849767958011254 35.09560163530637 0 0 0
2845 1 5.050348158105224 2.913797050203029 32.82565950972396 0 0 0
2804 1 3.181429451710505 -0.03060122077162021 35.09143552359705 0 0 0
2805 1 5.068225255151934 0.004518275414024574 32.82450279846723 0 0 0
2807 1 5.776584512665322 1.374309006381056 35.11138653252356 0 0 0
2848 1 8.409267383606654 3.0525841655905253 35.07356384879638 0 0 0
2849 1 10.200631321563863 2.861403821225356 32.838608960032836 0 0 0
2806 1 7.570605745416955 1.4886610836926433 32.67568864767278 0 0 0
2808 1 8.365124474382144 0.09685376949115851 35.23540054246826 0 0 0
2809 1 10.244704986130502 29.50099734977599 32.8873567871258 0 -1 0
2852 1 13.740102081437186 2.8661980986668802 35.047701443939026 0 0 0
2810 1 12.816866882439358 1.521371829053849 32.61877344221699 0 0 0
2811 1 11.159461990698079 1.410373291823719 34.95720719105151 0 0 0
2812 1 13.712814621114825 29.517268941158783 35.19339322138437 0 -1 0
2853 1 15.292984975886279 2.968875067345149 32.74326185927703 0 0 0
2813 1 15.335087204113236 29.525177584818646 32.82172958299372 0 -1 0
2815 1 16.242058613365632 1.4897529694931824 35.12697802362877 0 0 0
2856 1 18.784537932937706 3.0001708238151936 35.25312837030484 0 0 0
2814 1 17.920764784944243 1.5003082995404113 32.846580126070855 0 0 0
2816 1 18.783228783036947 0.004232474036876807 35.1049638881666 0 0 0
2817 1 20.407656847689292 29.43324747211222 32.778507112265096 0 -1 0
2818 1 23.032119649712932 1.4878506466088823 32.64453288295478 0 0 0
2819 1 21.394168660980405 1.3451756025614698 35.07484868576108 0 0 0
2857 1 20.415365456886484 2.915986687736086 32.8081184122923 0 0 0
2820 1 23.909315622536294 -0.028019301454286844 35.0183094987785 0 0 0
2821 1 25.598772018304405 0.01656225598635886 32.618944988748396 0 0 0
2823 1 26.337244471299257 1.2847304905222554 35.14446322384484 0 0 0
2860 1 23.86199032479198 3.059479269419377 35.05754934887824 0 0 0
2861 1 25.593152991710404 2.9001249811521825 32.800469338754596 0 0 0
2822 1 28.00924704202088 1.380789494067 32.903343761741404 0 0 0
2824 1 29.09491448091367 0.14569854914001415 35.10513705579485 0 0 0
2825 1 30.69466999785033 0.045967048263666904 32.75299248083869 0 0 0
2864 1 28.91578240000715 2.9424975470563504 35.154080150564646 0 0 0
2865 1 30.61013993857519 3.016931927695157 32.751138900086396 0 0 0
2826 1 33.18458805283905 1.5167693269504423 32.86249458880085 0 0 0
2827 1 31.62555371089104 1.6455944349179559 35.042529915734754 0 0 0
2828 1 34.21250778882883 29.489593849571243 35.084199078775896 0 -1 0
2829 1 35.90626889008111 0.06253917021970477 32.758516022480386 0 0 0
2831 1 36.79263689319865 1.4871764295267846 35.13854652549006 0 0 0
2868 1 34.05158047192694 2.8781923041740836 35.115307956611126 0 0 0
2869 1 35.74425619623797 2.9330822228832596 32.811398018347035 0 0 0
2830 1 38.30659519661671 1.5334736744840902 32.674748021415894 0 0 0
2832 1 39.27198290680646 0.07766327431471252 35.07747940410649 0 0 0
2872 1 39.2321053142588 3.1042363670824367 35.06872995655615 0 0 0
2833 1 40.97367818503321 0.037082775517834884 32.822692651395805 0 0 0
2834 1 43.42431351112762 1.4801093980147952 32.885815027749494 0 0 0
2835 1 41.62795506079513 1.6486025106132784 35.04220215723993 0 0 0
2836 1 44.36433341175095 0.023014736510949055 35.22931868081577 0 0 0
2873 1 40.88503650654772 2.9410770180266503 32.71809046058999 0 0 0
2876 1 44.32423577658679 2.898864166002498 35.13378352453668 0 0 0
2837 1 46.06968719033178 29.404652719487657 32.68193778033506 0 -1 0
2839 1 46.86446441532017 1.381849295940665 34.998863890123125 0 0 0
2877 1 45.97544047825858 2.97647720943793 32.57655522265115 0 0 0
2838 1 48.63755533641584 1.4118398044364249 32.60099913019282 0 0 0
2840 1 49.34269019571819 29.526624620799474 35.01083885541064 0 -1 0
2880 1 49.417263990128845 2.9641653762758415 35.051108836932556 0 0 0
2842 1 2.4387573060580077 4.493092020364323 32.71102256379944 0 0 0
2843 1 0.7939543454814406 4.344292464240425 35.09268758746069 0 0 0
2881 1 51.05603266665946 5.843596509579537 32.70682333207136 -1 0 0
2847 1 5.815066024314552 4.458765652284704 35.12963493062236 0 0 0
2884 1 3.3442405355717906 5.836705691649615 35.13057843215382 0 0 0
2885 1 4.970467612798851 5.804545053802727 32.82114741192338 0 0 0
2846 1 7.525209615270072 4.372263505344588 32.79105928453225 0 0 0
2888 1 8.470715345845498 5.954079704203272 35.15264114141898 0 0 0
2889 1 10.211769447529983 5.768875928530395 32.8042258238043 0 0 0
2892 1 13.679194494651295 5.92407814495312 35.10714942048492 0 0 0
2850 1 12.782312713816312 4.402415135693486 32.70332332198554 0 0 0
2851 1 11.104184924399146 4.416114896331936 35.1841053927223 0 0 0
2893 1 15.254767067095672 5.9319879434335645 32.77595380485371 0 0 0
2855 1 16.25972439710633 4.475496501970194 35.16387287724589 0 0 0
2896 1 18.721140637752285 5.917775164896938 34.9928073655658 0 0 0
2854 1 17.907141864133475 4.409791668525238 32.753753148419285 0 0 0
2897 1 20.455070012404644 5.883431737272826 32.7591301961158 0 0 0
2858 1 22.99128408682556 4.480098865753602 32.77848756255004 0 0 0
2859 1 21.329764050007707 4.323664565844206 35.137882747966664 0 0 0
2900 1 23.820072055222397 5.842669195130787 35.07841633413101 0 0 0
2901 1 25.504822750051655 5.909753857983181 32.75480139189105 0 0 0
2863 1 26.376103684882317 4.407155830524881 35.15283767119248 0 0 0
2904 1 28.85189891451339 5.9254893155733415 35.12594905508949 0 0 0
2905 1 30.66229386780078 5.952605589691687 32.817537593208364 0 0 0
2862 1 28.000448716516832 4.495978340721669 32.81163293502924 0 0 0
2866 1 33.357135448591094 4.37178363970533 32.820645454874615 0 0 0
2867 1 31.65548553262346 4.342471959753179 35.19043517270945 0 0 0
2908 1 34.056690047112625 5.811219208477659 35.24156173763085 0 0 0
2909 1 35.82766621396914 5.842128731795322 32.82700179216748 0 0 0
2871 1 36.59815706108448 4.388253710791088 35.1516117268097 0 0 0
2912 1 39.1807972698943 6.007393661904058 35.16875707016834 0 0 0
2870 1 38.472392115242414 4.4387128700146095 32.76529159573423 0 0 0
2874 1 43.49332092142403 4.479207619849045 32.736362320407125 0 0 0
2875 1 41.853374445315055 4.40735891425836 35.1318986153724 0 0 0
2913 1 40.754977364541546 5.849585079577688 32.77182899612343 0 0 0
2916 1 44.38005783407658 5.951115546757368 35.014047649928926 0 0 0
2879 1 46.808990633541356 4.382580206162049 34.85005627592106 0 0 0
2917 1 45.971446572679554 5.88396828955496 32.657821964488065 0 0 0
2878 1 48.61630295740227 4.434438922536318 32.67856028440942 0 0 0
2920 1 49.406007268274905 5.894742901418463 35.134056106934274 0 0 0
2882 1 2.470578338017481 7.3641885654037464 32.87789082490219 0 0 0
2883 1 0.8381360605151773 7.233694670220492 34.98429953004308 0 0 0
2921 1 51.11635330034321 8.786782757271112 32.74326073782246 -1 0 0
2922 1 2.602678040320479 10.441981033103321 32.74567202423927 0 0 0
2923 1 0.7036266381815324 10.291245210902447 35.065776555012945 0 0 0
2887 1 5.954247435554529 7.620179690631818 35.12154171657124 0 0 0
2924 1 3.3113015592757944 8.85495423421831 35.109985410148504 0 0 0
2925 1 5.062027756836957 8.788072426212482 32.780581779894 0 0 0
2927 1 5.896083462519154 10.3445249943359 35.14754819477097 0 0 0
2886 1 7.426090004755522 7.316847552069898 32.78947603472203 0 0 0
2926 1 7.584638801347025 10.257837484087608 32.71717867906875 0 0 0
2928 1 8.351178213099494 8.866909603049052 35.14005333213112 0 0 0
2929 1 10.10671132755736 8.746590347547693 32.67969109050893 0 0 0
2890 1 12.607109119748193 7.4116242992964025 32.69599558566226 0 0 0
2891 1 11.112607049283863 7.309182001005651 35.034630420049204 0 0 0
2930 1 12.681297054569967 10.260054183146982 32.77236984513785 0 0 0
2931 1 10.893664287736025 10.347941826459069 35.02690363935393 0 0 0
2932 1 13.466401230828698 8.825810788911 35.112361213043215 0 0 0
2895 1 16.135970029675747 7.349658213789519 35.079913502194 0 0 0
2933 1 15.191714551454108 8.849042236490659 32.977527967954735 0 0 0
2935 1 16.10934388842157 10.309955474676139 35.10636831902146 0 0 0
2894 1 17.88947333421966 7.2791852835367 32.66228589294767 0 0 0
2934 1 17.66469120684916 10.363350048348412 32.77348859399526 0 0 0
2936 1 18.65808034074723 8.75440758660188 35.042640830630795 0 0 0
2898 1 22.96370857930652 7.398932346356885 32.80692925420556 0 0 0
2899 1 21.18508259377144 7.386993013142265 35.01021235351197 0 0 0
2937 1 20.373253587632963 8.929063616104889 32.78776261890182 0 0 0
2938 1 22.940497407686344 10.325695426638514 32.76270416205087 0 0 0
2939 1 21.225773833770265 10.329751474125471 35.05480534504739 0 0 0
2903 1 26.32630657830887 7.437535574109741 35.09603379400959 0 0 0
2940 1 23.836001652735607 8.868513163158681 35.14711062918525 0 0 0
2941 1 25.573479375589628 8.832844364616351 32.65975473122705 0 0 0
2943 1 26.388934228761382 10.375309179840853 35.22247769000316 0 0 0
2945 1 30.620670254089504 8.909488492719195 32.665221882540855 0 0 0
2902 1 28.07784416216072 7.340561176864669 32.783529925842274 0 0 0
2942 1 28.04558918053492 10.268208907215346 32.678188488722995 0 0 0
2944 1 28.868969089701704 8.80740800366614 35.081845009933666 0 0 0
2946 1 33.29051144477184 10.3198800235361 32.7831630599075 0 0 0
2947 1 31.52097046542769 10.356791775980653 35.03314370688763 0 0 0
2906 1 33.28000930937843 7.323635911505261 32.87417984245663 0 0 0
2907 1 31.561037783845162 7.436897618542002 35.13245877127332 0 0 0
2948 1 34.07044310413177 8.822577492027122 35.11665388175547 0 0 0
2949 1 35.87089462912077 8.870669571407188 32.78514524709206 0 0 0
2951 1 36.61649752810983 10.37027855107183 35.150134366249 0 0 0
2911 1 36.578654285084426 7.445994361824142 35.18563652831902 0 0 0
2950 1 38.44130406904149 10.449816350961108 32.74592246021205 0 0 0
2952 1 39.11662106403655 8.858853535285295 35.14714121872623 0 0 0
2910 1 38.283821817811685 7.38707559089236 32.83118914946858 0 0 0
2953 1 40.89945485201723 8.82299298399045 32.82986878882297 0 0 0
2954 1 43.45734909865331 10.371942439401364 32.75456288180643 0 0 0
2955 1 41.805053273779336 10.38609686721551 35.11851969155977 0 0 0
2956 1 44.3579807933003 8.805795880628295 35.09640840271825 0 0 0
2914 1 43.468203514913654 7.444046669926538 32.69218109466067 0 0 0
2915 1 41.70748865262382 7.486156447742594 35.0840658433044 0 0 0
2957 1 45.963092434189136 8.932164253699417 32.796909884224775 0 0 0
2959 1 46.83802418048765 10.380634246745283 35.10621181967272 0 0 0
2919 1 46.83453358827455 7.408573111446611 34.99278087887817 0 0 0
2958 1 48.65376473421483 10.332601819066918 32.83789427013731 0 0 0
2960 1 49.34603221170187 8.826730491252528 35.07524050028408 0 0 0
2918 1 48.60334195125091 7.331964275978169 32.64979890992155 0 0 0
2961 1 51.095197130195125 11.783607448339875 32.83178576720166 -1 0 0
2962 1 2.49586800634886 13.379343188268617 32.80839937964978 0 0 0
2963 1 0.6525563062444193 13.332671052695853 35.00363551616474 0 0 0
2964 1 3.222527484774412 11.839160928984658 35.04738472107534 0 0 0
2965 1 5.085932872855738 11.779540370394043 32.730877801245384 0 0 0
2967 1 5.969446084474257 13.318274703172575 35.012136567739255 0 0 0
2966 1 7.6656491227904935 13.294864445100286 32.741660490826625 0 0 0
2968 1 8.442897379833687 11.755501499525115 35.163098685274825 0 0 0
2969 1 10.099686700577612 11.862418298982828 32.66278905405513 0 0 0
2970 1 12.803421770230925 13.233894747635771 32.76052684593581 0 0 0
2971 1 10.831460081200095 13.097782335174447 35.07606512134572 0 0 0
2972 1 13.534206149216361 11.78307080423991 35.02224004322896 0 0 0
2973 1 15.394774374987842 11.851743588275466 32.668996964167626 0 0 0
2975 1 16.1621761879875 13.310519427543415 35.19494984292617 0 0 0
2974 1 17.8027680972568 13.308908479977196 32.84233203098835 0 0 0
2976 1 18.620869603865387 11.727449364666613 35.11011883767927 0 0 0
2977 1 20.33781738324902 11.715908621386863 32.87653947170093 0 0 0
2978 1 22.90935871935796 13.392584696284132 32.85961280925872 0 0 0
2979 1 21.142205908868277 13.372883557879588 35.36766446189995 0 0 0
2980 1 23.795097971156856 11.867823763502829 35.19211501592014 0 0 0
2981 1 25.497124828547854 11.885023187439442 32.899452434630795 0 0 0
2983 1 26.39691387416889 13.446341391245099 35.03675337688278 0 0 0
2982 1 28.107158067694616 13.19901936726258 32.725779439368395 0 0 0
2984 1 28.86371134279461 11.779742302116523 35.09884520576664 0 0 0
2985 1 30.70428819099487 11.790407822100835 32.716885232939205 0 0 0
2986 1 33.15201858989391 13.221251861475432 32.675245049024895 0 0 0
2987 1 31.529991708118907 13.335436797889823 35.04144181669712 0 0 0
2988 1 34.0923167921101 11.872719237789449 35.18698083922501 0 0 0
2989 1 35.853138800595985 11.92331591230219 32.92066183062693 0 0 0
2991 1 36.718553975296246 13.266851779466364 35.288090612284215 0 0 0
2990 1 38.38908789535776 13.274122559232508 32.919593362847515 0 0 0
2992 1 39.17265745281013 11.916713324098746 35.09255410174213 0 0 0
2993 1 40.866213081647444 11.936099115974466 32.73378649794194 0 0 0
2994 1 43.48360975674143 13.307340713482432 32.894055811208716 0 0 0
2995 1 41.88359037060522 13.38190739490614 35.1665938093213 0 0 0
2996 1 44.34465143807914 11.884826477627568 35.02592590695074 0 0 0
2997 1 46.086981355630314 11.908726964535655 32.83058206228315 0 0 0
2999 1 46.93370905927716 13.32608074780731 35.00978026179779 0 0 0
2998 1 48.640471040071546 13.391706770047143 32.724521938244315 0 0 0
3000 1 49.455746518487715 11.76085830181317 35.17496650879578 0 0 0
3041 1 51.11147847992208 17.75661566306207 32.78834176574121 -1 0 0
3001 1 51.12557480464527 15.008915092482175 32.706143093460916 -1 0 0
3002 1 2.3715194138584996 16.265384755680387 32.82915701170342 0 0 0
3003 1 0.752638460997019 16.25581040834571 35.14469587815746 0 0 0
3044 1 3.3235447449121236 17.95527714435145 35.1839561366562 0 0 0
3045 1 5.000878739911903 17.745442607999863 32.77164468360698 0 0 0
3004 1 3.288695362943457 14.936718850012808 35.061393409929835 0 0 0
3005 1 5.102996309190553 14.785363736121047 32.77235288881537 0 0 0
3007 1 5.776670745789551 16.281527807923453 35.14141590875384 0 0 0
3009 1 10.297546844696035 14.694384756534118 32.79784407603588 0 0 0
3048 1 8.421444381117999 17.652480207858424 35.09505189033044 0 0 0
3049 1 10.165985530849802 17.795904278581304 32.92566714745466 0 0 0
3006 1 7.627914972015903 16.11590588372887 32.83168781699508 0 0 0
3008 1 8.57714589487733 14.744682933225322 35.12940981879418 0 0 0
3010 1 12.726159303793697 16.182209415019976 32.757999094603754 0 0 0
3011 1 11.077044978834794 16.127052797267815 35.072676424817786 0 0 0
3012 1 13.45464277775026 14.833786660610825 35.096925408448016 0 0 0
3052 1 13.462259224115279 17.640919038514696 35.10848220383903 0 0 0
3013 1 15.35122041445283 14.805324857825195 32.866244466378596 0 0 0
3015 1 16.209953131222104 16.25263902659239 35.146783813035434 0 0 0
3053 1 15.396744098236752 17.66596393801065 32.76459905580707 0 0 0
3014 1 17.9179981357107 16.26488925774307 32.746340911748135 0 0 0
3016 1 18.594667811425005 14.813218325901165 35.14066533095164 0 0 0
3056 1 18.74281773152048 17.71205494570983 35.11640355292449 0 0 0
3017 1 20.399471772974753 14.674570879037141 32.72196190010285 0 0 0
3018 1 22.913366423360163 16.249935227153074 32.85536524874418 0 0 0
3019 1 21.228240736821338 16.353153777021298 35.081382164326804 0 0 0
3057 1 20.43616572522906 17.837410566288533 32.80294344346228 0 0 0
3020 1 23.79939277129556 14.94089045026534 35.11811913500195 0 0 0
3021 1 25.517884927715144 14.83958470425672 32.838835007371884 0 0 0
3023 1 26.373271476542907 16.23122174597532 35.25693790786917 0 0 0
3060 1 23.94240889807804 17.69260931075231 35.360648162045344 0 0 0
3061 1 25.53513997261728 17.785999469362913 32.85119394208307 0 0 0
3022 1 28.036256912267312 16.338954363499766 32.8801847394655 0 0 0
3024 1 28.873849989961926 14.739719932341467 35.21158575138712 0 0 0
3025 1 30.64632289529048 14.857125144182296 32.84882619435378 0 0 0
3064 1 29.053664018312606 17.66605553215333 35.10175152278552 0 0 0
3065 1 30.66944800218361 17.764211056701818 32.83599278500941 0 0 0
3026 1 33.320288933319446 16.242368729486536 32.774290010427414 0 0 0
3027 1 31.59974815263311 16.262085073262185 35.15085922313164 0 0 0
3028 1 34.217092255013 14.694072458999711 35.01466401520463 0 0 0
3029 1 35.90831580329235 14.73803185558074 32.7627499063192 0 0 0
3031 1 36.689744991066576 16.387130653460723 35.21231434470051 0 0 0
3068 1 34.056326220937194 17.765982469616276 35.19917774666882 0 0 0
3069 1 35.850605185862236 17.750996753248906 32.9112286125329 0 0 0
3030 1 38.4272820940602 16.270307240400278 32.796043218427954 0 0 0
3032 1 39.2622797798068 14.715222128502738 35.286049012788624 0 0 0
3072 1 39.17619656380951 17.77860467172075 35.18928878166452 0 0 0
3073 1 40.831200018448314 17.821291764345865 32.862804559065616 0 0 0
3076 1 44.3578750553378 17.760978680312995 35.04648230123736 0 0 0
3033 1 40.904334413490375 14.731272315779051 32.86228071340691 0 0 0
3034 1 43.44293780015339 16.29942340972692 32.857302473113734 0 0 0
3035 1 41.6211116688155 16.30616527108289 35.31750892612078 0 0 0
3036 1 44.40610952414917 14.769935471339963 35.25192068059414 0 0 0
3077 1 45.91747614529115 17.597638994509794 32.785766093960035 0 0 0
3037 1 46.044800912256335 14.780089731809083 32.82974903390017 0 0 0
3039 1 46.897037200575426 16.370037901538602 35.1994086289175 0 0 0
3080 1 49.41169449099783 17.762725332341546 35.155088165916695 0 0 0
3038 1 48.48489662018224 16.40171571366359 32.75315098992927 0 0 0
3040 1 49.4611264901981 14.725133990885913 35.07541684799839 0 0 0
3081 1 51.149262304548465 20.69551018459343 32.74001496771166 -1 0 0
3042 1 2.4845953908059464 19.190360085954268 32.906149092703984 0 0 0
3043 1 0.849540794614822 19.297437323566974 35.115338652095765 0 0 0
3084 1 3.320616802317125 20.825382858854695 35.1742815047871 0 0 0
3085 1 5.046639243263263 20.61443876848933 32.74247090281421 0 0 0
3047 1 5.996214095172936 19.19988759417801 35.2016366349348 0 0 0
3088 1 8.578799413466161 20.6516115751258 35.118564153072924 0 0 0
3089 1 10.310208098235293 20.671305572685924 32.77510740286764 0 0 0
3046 1 7.683748227559761 19.07117484518271 32.83803214221378 0 0 0
3092 1 13.689798072136199 20.769571316171714 35.172311024668915 0 0 0
3050 1 12.852397958381275 19.226828463388905 32.87716098211586 0 0 0
3051 1 10.96793330310507 19.23717067975808 35.04295246021586 0 0 0
3093 1 15.448908591275135 20.579766528698435 32.89460925711004 0 0 0
3055 1 16.060549948110154 19.25242375400417 35.181248292505025 0 0 0
3096 1 18.792698711244178 20.665724901959678 35.126671685863336 0 0 0
3054 1 17.898495236855272 19.180552161970787 32.80080670849104 0 0 0
3097 1 20.58691003075254 20.721021246044685 32.779287031534544 0 0 0
3058 1 23.14335877783024 19.153891451341998 32.95916744894648 0 0 0
3059 1 21.280002730403123 19.199691639238175 35.2048985298039 0 0 0
3100 1 23.76793089586529 20.804666166125998 35.19760401267322 0 0 0
3101 1 25.69054210327537 20.65400242338069 32.76407007508912 0 0 0
3063 1 26.56374796412248 19.245705623951338 35.244238356929564 0 0 0
3104 1 28.94971162536687 20.68476717227817 35.1006817510822 0 0 0
3105 1 30.674205081382343 20.541459440988362 32.78457822762347 0 0 0
3062 1 28.159996769191316 19.22317591536995 32.8272268750229 0 0 0
3066 1 33.287271863502454 19.13696726334014 32.839102599395545 0 0 0
3067 1 31.576822656091558 19.19957092647774 35.11207794455115 0 0 0
3108 1 33.98689235915893 20.73095887155661 35.14676351686178 0 0 0
3109 1 35.91480145473656 20.607795279330254 32.72029724728229 0 0 0
3071 1 36.654619814262915 19.347237107655047 35.208836421391474 0 0 0
3112 1 39.21787832182349 20.70451252012505 35.10482178349367 0 0 0
3070 1 38.384426892795005 19.128548267882557 32.86737198373456 0 0 0
3074 1 43.35728915267974 19.113472617102154 32.7300673544083 0 0 0
3075 1 41.70952597554077 19.30497544936403 35.39166571559334 0 0 0
3113 1 40.88312958037038 20.609636488010338 32.80441526802538 0 0 0
3116 1 44.34403277186185 20.72722307229607 35.04494244442605 0 0 0
3079 1 46.780683549949345 19.15475532555692 35.22921989836024 0 0 0
3117 1 46.08157737248594 20.69909272009648 32.91813718116085 0 0 0
3078 1 48.61478677044035 19.2053484511773 32.8937685313567 0 0 0
3120 1 49.3491791234639 20.635510633598464 35.11471834379078 0 0 0
3082 1 2.490673176330341 22.204898594847286 32.63889333170956 0 0 0
3083 1 0.8612186481955153 22.146639570320495 35.180928686303936 0 0 0
3121 1 -0.05537976853398687 23.71179681362831 32.7557738277851 0 0 0
3122 1 2.5046448046773166 25.170150820190173 32.62517092891491 0 0 0
3123 1 1.017528422666622 25.105928607636883 35.028459101675054 0 0 0
3087 1 6.042075495958435 22.158206267104298 35.00432060070495 0 0 0
3124 1 3.427717495232948 23.605877898895486 35.18190506237407 0 0 0
3125 1 5.103271561269377 23.68137790475189 32.74153803084604 0 0 0
3127 1 5.923504826027178 25.10903244765194 35.06462057472533 0 0 0
3086 1 7.659486322676144 22.177355839260727 32.812906976576684 0 0 0
3126 1 7.665247762924619 25.226694885162487 32.67690303711555 0 0 0
3128 1 8.492117881410884 23.676839860840886 34.90044782467979 0 0 0
3129 1 10.276100162252899 23.60165054161144 32.702144146019606 0 0 0
3090 1 12.890344332737042 22.264783661350137 32.86713246683025 0 0 0
3091 1 10.974174349167498 22.186258257698206 35.08309347342941 0 0 0
3130 1 12.778115865255092 25.176159818303482 32.75257064346621 0 0 0
3131 1 11.015956113648327 25.17200142750078 35.0759217891609 0 0 0
3132 1 13.602000551118516 23.651677051366747 35.17487029869782 0 0 0
3095 1 16.16750105462454 22.13852290143994 35.145011685616915 0 0 0
3133 1 15.354570436877584 23.56284773932979 32.73133540683319 0 0 0
3135 1 16.139235304326725 25.119165218265245 35.067853334027376 0 0 0
3094 1 17.900291701545875 22.034173141531284 32.74708569900177 0 0 0
3134 1 17.904954237498135 25.112543369333125 32.74304425669676 0 0 0
3136 1 18.700186461480467 23.665312667683146 35.06540343408869 0 0 0
3098 1 23.069563443772793 22.20101024129312 32.85743706097164 0 0 0
3099 1 21.332040230348017 22.074247992522103 35.02119910280736 0 0 0
3137 1 20.415300918896776 23.62463849237772 32.78330810870474 0 0 0
3138 1 23.02738325152347 25.148605764125122 32.78869624922788 0 0 0
3139 1 21.263197826601694 25.09465012322741 35.180839172162685 0 0 0
3103 1 26.452009087984145 22.05814105243647 35.265774080731795 0 0 0
3140 1 23.76498672636999 23.68277940892269 35.1767914748316 0 0 0
3141 1 25.604495121343575 23.586213238452324 32.76171356198379 0 0 0
3143 1 26.385976199339044 25.17426070163232 35.15026925686434 0 0 0
3102 1 28.16393388166668 22.160924307112545 32.86532757524495 0 0 0
3142 1 28.232391713958076 25.167385235416447 32.76913613305738 0 0 0
3144 1 28.976962465278344 23.623619041701318 35.20365826977926 0 0 0
3145 1 30.51427425453915 23.68131921208486 32.80023751393287 0 0 0
3106 1 33.255116628467704 22.16572028423225 32.68988787987386 0 0 0
3107 1 31.590302646251256 22.171735049497947 35.00494003067357 0 0 0
3146 1 33.16329697253252 25.064837944249803 32.77321726537652 0 0 0
3147 1 31.66732985757819 25.047480851623845 35.03465442197939 0 0 0
3111 1 36.62551480093869 22.250160412902645 35.2699164871276 0 0 0
3148 1 34.20291730937964 23.70775003067586 35.11436101541821 0 0 0
3149 1 35.73124420920375 23.576913356148424 32.85562897736983 0 0 0
3151 1 36.675520673451885 25.208401589193024 35.169940086603 0 0 0
3110 1 38.285920414682664 22.12994714681544 32.73239291047519 0 0 0
3150 1 38.37780779523973 24.981970739985833 32.83132884598081 0 0 0
3152 1 39.21487657748631 23.67302837045522 35.163943271940745 0 0 0
3114 1 43.55309397750099 22.08604851969747 32.730725559366846 0 0 0
3115 1 41.66081008594912 22.187274524962397 35.1366829877988 0 0 0
3153 1 40.92462724634312 23.548158021039413 32.840349325887125 0 0 0
3154 1 43.45952092222262 25.109158644062468 32.82898206365536 0 0 0
3155 1 41.77769451295009 25.052633488395237 35.08460006015507 0 0 0
3156 1 44.33709937060132 23.64609996830243 35.0368343141332 0 0 0
3119 1 46.88099098462979 22.15041106253134 35.109265891955225 0 0 0
3157 1 46.12438500646013 23.644394937514363 32.83046683529973 0 0 0
3159 1 46.847191740373034 25.046423618580384 35.16724007225887 0 0 0
3118 1 48.62293549384344 22.24081878822532 32.787145153224216 0 0 0
3158 1 48.53960801951655 25.239339550207326 32.829081241178336 0 0 0
3160 1 49.514154916102214 23.58955058999087 35.060312937372096 0 0 0
3161 1 -0.05107916139278741 26.73974085772123 32.75190683325698 0 0 0
3162 1 2.4820322291904766 28.140989795004074 32.71927771741904 0 0 0
3163 1 0.7950147909286939 28.132154126806192 35.1201934392887 0 0 0
3164 1 3.281282508735052 26.580105321966556 35.100821853507604 0 0 0
3165 1 5.02038345175421 26.664846306049633 32.789153685857016 0 0 0
3167 1 5.889746799936622 28.08276095116708 35.20303910566274 0 0 0
3166 1 7.632944793110776 28.1371219000778 32.807430628217816 0 0 0
3168 1 8.503029514959463 26.708253518842668 35.13860008078436 0 0 0
3169 1 10.06117598130837 26.553784521814016 32.84003868915893 0 0 0
3170 1 12.66390124083241 28.00469729997065 32.86125629773676 0 0 0
3171 1 11.044882525978675 28.044956009698495 35.05908347100425 0 0 0
3172 1 13.627436985443085 26.638118257431827 35.11832842062356 0 0 0
3173 1 15.356366918005614 26.62303731058727 32.73398098161181 0 0 0
3175 1 16.18705272870119 28.053645492133363 35.13278524254257 0 0 0
3174 1 17.876713971442943 28.031414899797092 32.67886209166217 0 0 0
3176 1 18.755235031015808 26.53803653676247 35.02720706704311 0 0 0
3177 1 20.454886983092155 26.56014999016059 32.782056495027945 0 0 0
3178 1 22.989824580918725 28.11217048135839 32.78484044423093 0 0 0
3179 1 21.32763137245667 28.16572945071156 35.15150248234781 0 0 0
3180 1 23.883083332214394 26.6277521077012 35.142331151590504 0 0 0
3181 1 25.52860274786352 26.606089521602975 32.68440198260169 0 0 0
3183 1 26.482849192430027 27.99606869252213 34.99282705578733 0 0 0
3182 1 28.195274037329476 28.064662358653052 32.89678804847245 0 0 0
3184 1 29.04370049869404 26.705536661625267 35.14229704710126 0 0 0
3185 1 30.743960697046862 26.563524285723616 32.796537033460574 0 0 0
3186 1 33.252680995310584 28.11705567207366 32.719899814495896 0 0 0
3187 1 31.54078524078919 28.162827988442686 35.034719776520184 0 0 0
3188 1 34.06011640024883 26.603805170521696 35.0478768189366 0 0 0
3189 1 35.75772438588055 26.671822623993755 32.733336220549624 0 0 0
3191 1 36.612045544440036 28.240814242937738 35.15843014963005 0 0 0
3190 1 38.317453263182514 28.112202942043638 32.72228904017932 0 0 0
3192 1 39.248238917439366 26.742497341790546 35.19636327811603 0 0 0
3193 1 40.9418474358545 26.512511481773387 32.805199445006075 0 0 0
3194 1 43.545953393171885 28.08445508093046 32.71112782042574 0 0 0
3195 1 41.83818163350347 28.252177977358215 35.08743525228738 0 0 0
3196 1 44.307426952064716 26.569675729631136 35.10694599047051 0 0 0
3197 1 46.0216355091645 26.534938867807433 32.80244787632763 0 0 0
3199 1 46.85711481514207 28.127984011161864 35.14728424532057 0 0 0
3198 1 48.69805838504938 28.072257271930674 32.6505846257307 0 0 0
3200 1 49.434893929050304 26.628890502437528 34.99946373486225 0 0 0
3201 1 -0.016855334019310338 -0.03228004576859978 37.473626213773535 0 0 0
3202 1 2.462214008843825 1.4302691918704948 37.357911151339714 0 0 0
3241 1 -0.03469816234194861 3.0376850312141865 37.32466175986732 0 0 0
3205 1 4.982471769003188 0.006970991757353218 37.4910681799098 0 0 0
3245 1 5.0280351810573665 3.0342085143706417 37.34051705692906 0 0 0
3206 1 7.516724316583071 1.5848131456783185 37.324979493534975 0 0 0
3209 1 10.107419591074922 0.11398362920313038 37.404138530124925 0 0 0
3249 1 10.07879354587536 2.9284196391463575 37.44733119464448 0 0 0
3210 1 12.732733013620559 1.3895389231067636 37.446456661102246 0 0 0
3213 1 15.402659600154951 0.010200229177219376 37.42655075409702 0 0 0
3253 1 15.414159660882792 2.9623087593735704 37.46803139446334 0 0 0
3214 1 18.01137171203952 1.5074462456240596 37.47425403851172 0 0 0
3217 1 20.50505313422625 0.12737753960263618 37.434434782287795 0 0 0
3218 1 23.046424918368707 1.404866355925773 37.404359859021135 0 0 0
3257 1 20.477295236646555 3.0121805239779107 37.47335569309643 0 0 0
3221 1 25.483646390896705 0.042701982921283396 37.49646449257586 0 0 0
3261 1 25.55469443643139 2.9258880043223168 37.37826049117522 0 0 0
3222 1 28.08803250300938 1.4074957330065458 37.39151268211728 0 0 0
3225 1 30.72228319132829 -0.019604573820864633 37.391004890775605 0 0 0
3265 1 30.75000804513147 3.0185398788349187 37.41919329989283 0 0 0
3226 1 33.221630757360586 1.3779962985071996 37.41845532863734 0 0 0
3229 1 35.72418801537256 0.03753238311359003 37.485632985690586 0 0 0
3269 1 35.77053285276092 2.9329295107483575 37.52706599403112 0 0 0
3230 1 38.40089988896098 1.4673185888405158 37.44878349599041 0 0 0
3273 1 40.94734411701663 2.981798007998626 37.3883042190383 0 0 0
3233 1 40.87143044386582 29.475834712254493 37.450864511840464 0 -1 0
3234 1 43.40281362938299 1.5088574276339897 37.52856708019266 0 0 0
3277 1 46.12496771985194 3.0747804594244057 37.39520211105401 0 0 0
3237 1 45.98459360023476 0.07806389628234157 37.53942758552804 0 0 0
3238 1 48.64103916335547 1.5102156131549143 37.462126014408625 0 0 0
3281 1 51.14021994320623 5.914052687814107 37.38082616385166 -1 0 0
3242 1 2.513306976254959 4.426769218688692 37.481906061937174 0 0 0
3285 1 4.9768028977058245 5.965887727743524 37.49808810403022 0 0 0
3289 1 10.188900561784832 5.862300550502793 37.56166822403252 0 0 0
3246 1 7.599765596408746 4.479308555315165 37.50660882852636 0 0 0
3250 1 12.748397365840246 4.405887665324239 37.528189813143854 0 0 0
3293 1 15.346961818711184 5.923597032882048 37.47114987335644 0 0 0
3254 1 17.860411652634458 4.431887221393242 37.449720958789335 0 0 0
3297 1 20.407041286034183 5.88863667519882 37.352793693103635 0 0 0
3258 1 22.982247117749033 4.427477446195652 37.41531993518495 0 0 0
3301 1 25.500258005387078 5.7874030680831785 37.4229490709458 0 0 0
3305 1 30.657419170277333 5.926073866899278 37.49429567958848 0 0 0
3262 1 28.0215247052635 4.473188984446779 37.393040463049026 0 0 0
3266 1 33.21132117242516 4.458536683108783 37.4927908687134 0 0 0
3309 1 35.791300816247485 5.825245911147949 37.49918515671323 0 0 0
3270 1 38.27421115397351 4.3281936558519964 37.33079979006941 0 0 0
3274 1 43.51485708207767 4.446049904011763 37.411197953826665 0 0 0
3313 1 40.71041511739959 6.024513403700753 37.44549173051366 0 0 0
3317 1 46.02390040790851 5.896321725376914 37.45052001805218 0 0 0
3278 1 48.43543043261083 4.454979093947118 37.401376186320014 0 0 0
3282 1 2.3590020066002353 7.382064877936413 37.315815167558185 0 0 0
3321 1 50.99974793365834 8.877539459440742 37.44606245992024 -1 0 0
3322 1 2.3685371224480734 10.358381904729377 37.59235776656134 0 0 0
3325 1 4.859828571420963 8.839264958614121 37.46482771821817 0 0 0
3329 1 10.128267812202935 8.801888315978898 37.489513311646746 0 0 0
3286 1 7.649696066455303 7.3457093013461785 37.57696946437895 0 0 0
3326 1 7.612098688822541 10.183386837423836 37.507710650335774 0 0 0
3330 1 12.789813744776229 10.244713109437342 37.46087499605807 0 0 0
3290 1 12.652519143447705 7.317639271950722 37.49228757845814 0 0 0
3333 1 15.220721382787756 8.847031522413616 37.506930766994394 0 0 0
3334 1 17.713846701636328 10.14958224352635 37.429688192593794 0 0 0
3294 1 17.846895828044385 7.305173368323789 37.52753223564214 0 0 0
3337 1 20.317441245195585 8.801032676772268 37.5025355771621 0 0 0
3338 1 22.908193177540486 10.335245065366342 37.49824875932088 0 0 0
3298 1 22.921577718837042 7.406096909351464 37.48059566788556 0 0 0
3341 1 25.58713335456201 8.79710855067657 37.499132024471855 0 0 0
3342 1 28.081859923480504 10.389436244166205 37.49100054878935 0 0 0
3345 1 30.59188075394512 8.905721704856814 37.39537201139303 0 0 0
3302 1 28.056024554591694 7.375864886538538 37.367499199493956 0 0 0
3346 1 33.052893457728146 10.347991325228469 37.48324780478025 0 0 0
3306 1 33.14014011607004 7.359677028039283 37.420881349262146 0 0 0
3349 1 35.711426356508795 8.912201185908115 37.43767172297319 0 0 0
3350 1 38.292215784670205 10.320994830693884 37.47855125290684 0 0 0
3310 1 38.22531218090576 7.595338098735775 37.53028210387312 0 0 0
3353 1 40.93619437634949 8.889017755281793 37.500088546316825 0 0 0
3354 1 43.50950155670405 10.368949310805768 37.403118558421674 0 0 0
3314 1 43.52414428418153 7.437897178058717 37.44011934779841 0 0 0
3357 1 45.9931871735337 8.969885102790716 37.54334533764793 0 0 0
3358 1 48.57100134283195 10.236683009393774 37.499272345038484 0 0 0
3318 1 48.49209845001643 7.3291860466471075 37.4728494036872 0 0 0
3361 1 51.12468080659371 11.846524677772374 37.44774608719947 -1 0 0
3362 1 2.4280763287225735 13.384367000065476 37.33057645048669 0 0 0
3365 1 4.942247661163277 11.806214978543665 37.31561785130053 0 0 0
3366 1 7.643160324028455 13.304876812176547 37.36276665939575 0 0 0
3369 1 10.191824118711448 11.683399704184195 37.42283542631032 0 0 0
3370 1 12.721019370561251 13.26700283464121 37.40533349179433 0 0 0
3373 1 15.17300520124625 11.746475311736416 37.5235158285336 0 0 0
3374 1 17.872409606401476 13.170398518630158 37.51753849904946 0 0 0
3377 1 20.465819972455755 11.706178399113002 37.47173530294787 0 0 0
3378 1 22.965676164557046 13.225154371567484 37.46169671220271 0 0 0
3381 1 25.46602298620341 11.808277929614556 37.60353548360049 0 0 0
3382 1 28.006386734252967 13.307137428397912 37.5482502548527 0 0 0
3385 1 30.499129694087518 11.88282944411488 37.3994795003967 0 0 0
3386 1 33.16353457738886 13.268499223702898 37.476449766485196 0 0 0
3389 1 35.65655336350298 11.772956582167472 37.38211902664349 0 0 0
3390 1 38.37253449550212 13.336867748142184 37.56605717266898 0 0 0
3393 1 41.059689089065756 11.869591488861403 37.46495660798683 0 0 0
3394 1 43.530253609006635 13.259641246669702 37.4156089736172 0 0 0
3397 1 46.018813102609045 11.879427353022525 37.390285987869404 0 0 0
3398 1 48.68240718537233 13.371069019344567 37.562499549949415 0 0 0
3401 1 51.132232382705475 14.681335991406073 37.455313437770776 -1 0 0
3402 1 2.418779648406302 16.40773421279676 37.47775214711174 0 0 0
3441 1 51.049895231331945 17.76882690543021 37.453759361077516 -1 0 0
3405 1 4.9690883881726595 14.813654068377893 37.344781414105775 0 0 0
3445 1 5.093096881672724 17.6251331913261 37.502761342265444 0 0 0
3406 1 7.621279605954845 16.166864332557864 37.38077867319063 0 0 0
3409 1 10.159355669520812 14.636568586353233 37.437035041764034 0 0 0
3449 1 10.221486527558321 17.54769702515837 37.479511108290396 0 0 0
3410 1 12.776002226383817 16.091909882667252 37.47753772704512 0 0 0
3413 1 15.314168464211113 14.686824158529097 37.308673714976116 0 0 0
3453 1 15.161091056616977 17.716725455490902 37.497435989525144 0 0 0
3414 1 17.79626803595612 16.18923337968654 37.45081216252338 0 0 0
3457 1 20.354846500987954 17.67290227676728 37.44934354960894 0 0 0
3417 1 20.307358981596117 14.725159066908668 37.5181442471465 0 0 0
3418 1 22.85307662600188 16.16831625328995 37.49208870288111 0 0 0
3461 1 25.637220809223987 17.722681565173936 37.63998285408423 0 0 0
3421 1 25.55728506842037 14.794451873019748 37.691872402306124 0 0 0
3465 1 30.62003594146878 17.69516086124333 37.45474555347484 0 0 0
3422 1 28.080245459605322 16.262625064120023 37.59697516735979 0 0 0
3425 1 30.617418338923542 14.749155822722834 37.60787725805051 0 0 0
3426 1 33.2751516484129 16.21211274736354 37.445345916202626 0 0 0
3469 1 35.83485988420189 17.777581591509595 37.480258327188714 0 0 0
3429 1 35.84159749769944 14.761999969955244 37.41613681497059 0 0 0
3430 1 38.47600659306882 16.267219408163413 37.4846338837107 0 0 0
3473 1 40.92328319562367 17.797063613518127 37.59616408661071 0 0 0
3433 1 40.95726847729546 14.865586811234698 37.54967827230158 0 0 0
3434 1 43.418317594116075 16.290795630845786 37.488106970935306 0 0 0
3477 1 45.866101301311616 17.63527742117649 37.58379653012518 0 0 0
3437 1 46.12365950251731 14.76528615363823 37.519954212679494 0 0 0
3438 1 48.517128092036714 16.321231571730394 37.635633531809226 0 0 0
3481 1 51.00598560671966 20.629960749494032 37.449998311017524 -1 0 0
3442 1 2.3900886868687135 19.129746455938793 37.4776552280197 0 0 0
3485 1 5.067740496975315 20.67208729423539 37.51657773472107 0 0 0
3489 1 10.205918240033544 20.674690704804227 37.34205041154261 0 0 0
3446 1 7.648534695286187 19.156717225803106 37.518010566199884 0 0 0
3450 1 12.653127972083183 19.20673451396545 37.509989441245395 0 0 0
3493 1 15.380539765468177 20.679905478509028 37.43327528778493 0 0 0
3454 1 17.804914133906877 19.203932154743505 37.47538239428508 0 0 0
3458 1 23.106504259680428 19.00678517808101 37.58557748578893 0 0 0
3497 1 20.496944960569234 20.70749141689806 37.437614953873464 0 0 0
3501 1 25.508305373268403 20.61542298908988 37.48362526329148 0 0 0
3462 1 28.24364349511916 19.092005233809196 37.49126303907934 0 0 0
3505 1 30.835110534683142 20.5691047600218 37.3101174612295 0 0 0
3466 1 33.19862638653139 19.15565731725288 37.45860561838491 0 0 0
3509 1 35.8038206680836 20.821420426444917 37.51378876237843 0 0 0
3470 1 38.357106393226644 19.176369712416694 37.56545459627017 0 0 0
3474 1 43.45051838654376 19.181533443382627 37.46006464271072 0 0 0
3513 1 40.83996056190318 20.73506616740137 37.46986522674968 0 0 0
3517 1 46.030207467711875 20.735590676252556 37.45747852290537 0 0 0
3478 1 48.53249577522786 19.232740894928988 37.43755583653632 0 0 0
3482 1 2.4909046374288253 22.25944996314626 37.54134913716728 0 0 0
3521 1 51.10684409594157 23.51615150457628 37.342543951639044 -1 0 0
3522 1 2.5748845952624295 25.13343697133388 37.554327873046546 0 0 0
3525 1 5.110751554836242 23.6603638352969 37.43155629161957 0 0 0
3486 1 7.669446571352908 22.210558676820774 37.51806580003849 0 0 0
3526 1 7.424563003911326 25.06129535258406 37.42417514767158 0 0 0
3529 1 10.221252975601448 23.668723267148145 37.4419454898733 0 0 0
3530 1 12.835701686158261 25.16310190259957 37.495209417097726 0 0 0
3490 1 12.76451859593772 22.17342402703982 37.42396558223988 0 0 0
3533 1 15.345538007344278 23.604423048886282 37.44845822857742 0 0 0
3534 1 17.841971847602824 25.1268540607254 37.273028648816705 0 0 0
3494 1 18.003954322597416 22.13473018390558 37.47107630281603 0 0 0
3537 1 20.460809387696997 23.673482407747358 37.56315441192518 0 0 0
3538 1 23.065936578252682 25.078059598829313 37.45180431446956 0 0 0
3498 1 22.97741657205692 22.164467625174147 37.52568440668305 0 0 0
3541 1 25.43761767856691 23.59689793270998 37.43028627746266 0 0 0
3542 1 28.111533799168093 25.12154248081778 37.457557746834695 0 0 0
3545 1 30.7217655999437 23.66305823939185 37.33616743567482 0 0 0
3502 1 28.12010277335367 22.100366657894206 37.56170948659635 0 0 0
3546 1 33.261549526531795 25.21717841053409 37.39445572655726 0 0 0
3506 1 33.2457636463438 22.240352246788383 37.51508797469178 0 0 0
3549 1 35.90509642598353 23.81735516140936 37.50765174591078 0 0 0
3550 1 38.444564089650385 25.21127372573801 37.44697143573818 0 0 0
3510 1 38.402055541672354 22.224293766235455 37.52555103243243 0 0 0
3514 1 43.30129744592921 22.226457747069347 37.455510620328944 0 0 0
3553 1 40.86673171985774 23.70601238003259 37.60690711353374 0 0 0
3554 1 43.46274678129967 25.190983034830488 37.44673035640433 0 0 0
3557 1 45.991772555994515 23.724745642284688 37.428859467506804 0 0 0
3518 1 48.459121807333645 22.222855402682043 37.354470210782495 0 0 0
3558 1 48.57685677298163 25.174651866675617 37.34812444286673 0 0 0
3561 1 -0.051169805494392186 26.55014162653883 37.29861927673831 0 0 0
3562 1 2.54261823307368 28.100077324189222 37.53573410711345 0 0 0
3565 1 5.03051920424359 26.646427159869724 37.5182512186506 0 0 0
3566 1 7.510400656614132 28.124977042545204 37.42965675216557 0 0 0
3569 1 10.278519279271613 26.798190008218263 37.40827955921624 0 0 0
3570 1 12.766006450939358 28.16699070566213 37.59549547063581 0 0 0
3573 1 15.346200030555277 26.485498585352566 37.412147133460394 0 0 0
3574 1 17.99130759030603 28.16748523207749 37.333419791311556 0 0 0
3577 1 20.402262213202558 26.5890192029644 37.477454032144074 0 0 0
3578 1 23.098791071077283 27.999079189431477 37.49700364079129 0 0 0
3581 1 25.50181609434989 26.388541670166177 37.39371340066187 0 0 0
3585 1 30.62223970144788 26.551355427180603 37.347566972950695 0 0 0
3582 1 28.165275557500628 28.165087752663297 37.47385800389675 0 0 0
3586 1 33.22983085504828 28.12109539809161 37.458088574744224 0 0 0
3589 1 35.737573922651336 26.661359469082036 37.52461445457441 0 0 0
3590 1 38.33278280603463 28.07046154929686 37.398634473263215 0 0 0
3593 1 40.97505847966005 26.661434948774207 37.53326211477054 0 0 0
3594 1 43.41696273728614 28.0585366549115 37.30276651836187 0 0 0
3597 1 46.046617401109145 26.631511010348447 37.401185054301884 0 0 0
3598 1 48.546996107083245 28.090813413941277 37.375519710341806 0 0 0
3601 1 50.97585413704559 29.43061663231602 42.22507628918205 -1 -1 0
3602 1 2.489895290558241 1.3912502040563937 42.244944312418745 0 0 0
3641 1 51.1348288604998 2.9788194306527234 42.076632156666385 -1 0 0
3203 1 0.6715682136331069 1.4780213241198485 39.72396369408902 0 0 0
3605 1 5.010093968191876 29.508934443636317 42.26986217853518 0 -1 0
3645 1 4.990987802820735 2.9341696940914845 42.128875669778516 0 0 0
3204 1 3.282398911915238 -0.010163163069233316 39.797793114499875 0 0 0
3207 1 5.7574619225783525 1.4673358778654804 39.7735390532668 0 0 0
3244 1 3.195304478714706 2.834634820987782 39.83924595863258 0 0 0
3606 1 7.609599344746947 1.3618630938648908 42.21689830974365 0 0 0
3609 1 10.215786925795955 29.502453068979516 42.19432426738957 0 -1 0
3649 1 10.242891983092807 2.850301120417243 42.07097019347565 0 0 0
3208 1 8.45847437072215 29.478243693315566 39.886283365133245 0 -1 0
3248 1 8.461832060623655 2.8402037965938014 39.84496654466985 0 0 0
3610 1 12.692017561922588 1.4916512161717015 42.09577240942747 0 0 0
3211 1 10.9198613113631 1.3819693076040342 39.85631055438999 0 0 0
3212 1 13.59925205904532 29.45387079055055 39.87673849823097 0 -1 0
3252 1 13.656356695046803 2.8697026808438153 39.85638365067224 0 0 0
3613 1 15.197610137358636 29.37667258793415 42.13316720027963 0 -1 0
3653 1 15.218642611664599 2.7798857646424344 42.029233024350056 0 0 0
3215 1 16.11940633524564 1.3574722896114082 39.75360980513342 0 0 0
3614 1 17.87716023160214 1.378916257900754 42.05855546971676 0 0 0
3216 1 18.716338428946095 29.514653033255648 39.81107549999256 0 -1 0
3256 1 18.7088111996039 2.9076831541397423 39.7770773385294 0 0 0
3617 1 20.54774560405836 29.4479149181842 42.113875789750644 0 -1 0
3618 1 23.003324425531087 1.2725528358263754 42.12254687232101 0 0 0
3657 1 20.475169092550814 2.7716356441269587 42.184259135997486 0 0 0
3219 1 21.164907135467175 1.456707638214397 39.85895198478659 0 0 0
3621 1 25.674197775166736 29.45878005273263 42.14153771584522 0 -1 0
3661 1 25.61986966529757 2.849274136787742 42.157840103728226 0 0 0
3220 1 23.916230403370353 29.484287528655198 39.82372129663605 0 -1 0
3223 1 26.457134851705355 1.3774870665840053 39.87663958960824 0 0 0
3260 1 23.832430023014904 2.878615121617294 39.68294604075581 0 0 0
3622 1 28.24630902036653 1.4289031969752373 42.155017588374626 0 0 0
3625 1 30.80842878640296 -0.028085475970317027 42.16727878941059 0 0 0
3665 1 30.735487839545613 2.9384560810764375 42.01256451400798 0 0 0
3224 1 28.950685069585422 0.019755844101013303 39.767421763771914 0 0 0
3264 1 28.917807536885906 3.0120135344930947 39.667661050522675 0 0 0
3626 1 33.16993709127432 1.5335116268059097 42.146511219486314 0 0 0
3227 1 31.485740432426738 1.5020589078411073 39.71646373726928 0 0 0
3629 1 35.78864825963453 29.520512788393315 42.23968792228862 0 -1 0
3669 1 35.72207360768029 3.010268878774433 42.1114378647076 0 0 0
3228 1 33.960841502002864 29.50978784688562 39.86192690703486 0 -1 0
3231 1 36.65575974620184 1.4026802117070236 39.961081204763126 0 0 0
3268 1 34.00643926041981 2.923570029623719 39.706702829589986 0 0 0
3630 1 38.2890915656849 1.4425675597223335 42.17924534137615 0 0 0
3232 1 39.196778244587975 0.162715740722524 39.84138194074766 0 0 0
3272 1 39.1560621236012 3.0438066398733 39.658975555553184 0 0 0
3633 1 40.879668053432624 29.531576598239358 42.068046515011766 0 -1 0
3634 1 43.47052386477442 1.4263886213858983 42.14946317471503 0 0 0
3673 1 40.870743219285174 2.9602460255906746 41.97586869343708 0 0 0
3276 1 44.379948903685474 3.028130942532366 39.79508383648115 0 0 0
3235 1 41.68475656383842 1.482701619866224 39.729878209687435 0 0 0
3236 1 44.31306835206847 29.526242864064347 39.830282616338756 0 -1 0
3637 1 45.999716646711875 29.489728125736058 42.06407342852298 0 -1 0
3677 1 46.0413838071115 2.932453088165613 42.028029369634105 0 0 0
3239 1 46.87667073868903 1.4930689187122768 39.81408407982291 0 0 0
3638 1 48.4890731265088 1.2989126408963299 42.05983425413382 0 0 0
3280 1 49.41987343752035 2.9306968009282053 39.878238230389414 0 0 0
3240 1 49.410945774912534 29.508894786169968 39.67814927608751 0 -1 0
3642 1 2.468468196120598 4.381092423737379 42.16636831513437 0 0 0
3681 1 -0.010711503176747988 5.859147571635448 42.285134838432654 0 0 0
3243 1 0.7018769294017184 4.45787154466687 39.8895542445523 0 0 0
3685 1 4.9766644457455165 5.930306421959449 42.21322503493854 0 0 0
3284 1 3.268518104220841 5.85485823176354 39.689586759484996 0 0 0
3247 1 5.772271245084188 4.438535966171871 39.76107056700198 0 0 0
3646 1 7.509800705298882 4.358360812500621 42.18132234825851 0 0 0
3689 1 10.078480268429496 5.9496963124400954 42.18155375145946 0 0 0
3288 1 8.40248995294957 5.90165176454776 39.80311796230725 0 0 0
3650 1 12.694558526292312 4.475542307031056 42.140431373056956 0 0 0
3292 1 13.509952535469283 5.883265242466497 39.83080979289004 0 0 0
3251 1 11.001083697490646 4.432727795648027 39.793867041594396 0 0 0
3693 1 15.252380313886523 5.761408008622753 42.151612569429865 0 0 0
3255 1 16.211380592334958 4.226745761364406 39.73626101582957 0 0 0
3654 1 17.935990349826604 4.380513255022631 42.13446242383255 0 0 0
3296 1 18.746408864306595 5.948969850217366 39.87997238504618 0 0 0
3658 1 22.925613278617742 4.310073495132879 42.24203884904893 0 0 0
3697 1 20.422284398035334 5.706876586118876 42.293149421952684 0 0 0
3259 1 21.312261518893674 4.341737823056501 39.810351419598035 0 0 0
3701 1 25.52026906765887 5.758666911415867 42.17958809390493 0 0 0
3300 1 23.728576402450834 5.947984149696288 39.875805000110866 0 0 0
3263 1 26.242619246701903 4.425955187253078 39.819713697025215 0 0 0
3662 1 28.134283609826753 4.253779027772276 42.12651011908577 0 0 0
3705 1 30.55566359879272 5.912526671195974 42.23562845647109 0 0 0
3304 1 28.941083593699993 5.975767896448382 39.828807448530405 0 0 0
3666 1 33.27647044109365 4.475374210246086 42.25782732218396 0 0 0
3267 1 31.41386144382399 4.500647617176555 39.8632790250721 0 0 0
3709 1 35.66344351602589 5.925492875313606 42.21128534651946 0 0 0
3271 1 36.55868462756435 4.4619781079438186 39.83957713653775 0 0 0
3308 1 34.06502636375001 5.991253400031054 39.75545484969902 0 0 0
3670 1 38.35443658311915 4.420931038088617 42.141624206417085 0 0 0
3312 1 39.127232055443784 5.884148652479691 39.804021798845454 0 0 0
3713 1 40.948778403826 5.9094831948342375 42.00875347589797 0 0 0
3674 1 43.48893906021456 4.275989000026484 42.14038610626972 0 0 0
3275 1 41.81552020403903 4.431421406814704 39.740934380288536 0 0 0
3316 1 44.32512982773426 6.011423965072087 39.91985045182234 0 0 0
3717 1 46.03314421779723 5.908995814483927 42.21571618066155 0 0 0
3279 1 46.94757824885086 4.445392499359633 39.807963333051 0 0 0
3678 1 48.38787034135167 4.386585172090327 42.17163307741105 0 0 0
3320 1 49.50665428742772 5.906627450305151 39.87478999545977 0 0 0
3721 1 51.05697735753962 8.895684659004829 42.29109418491223 -1 0 0
3722 1 2.4669202472804375 10.405487779247697 42.23799188648256 0 0 0
3682 1 2.4337956923629194 7.427943643328726 42.1138063009471 0 0 0
3283 1 0.7877982309599032 7.394129094547667 39.80477598967015 0 0 0
3323 1 0.7596916160427968 10.249269664910528 39.87070447608508 0 0 0
3725 1 5.027084209352996 8.851094384224531 42.115430136664436 0 0 0
3287 1 5.910250202554095 7.439193744110364 39.78211635275779 0 0 0
3324 1 3.3596963533861057 8.994619027613163 39.85234377449766 0 0 0
3327 1 5.865912117292473 10.422635325907018 39.69629186784736 0 0 0
3726 1 7.527601787358779 10.405193617264937 42.14360153221898 0 0 0
3729 1 10.188566122645986 8.84025826822593 42.12041009417227 0 0 0
3686 1 7.5159197508078925 7.400974498655592 42.301506350140976 0 0 0
3328 1 8.450819099712746 8.846660596525737 39.945430133288355 0 0 0
3730 1 12.732663788466509 10.247770044424758 42.28678875248728 0 0 0
3331 1 11.088985066876328 10.394952950518357 39.785969103536836 0 0 0
3332 1 13.505710732531613 8.742003156614189 39.85847940739675 0 0 0
3690 1 12.775349286812151 7.382368888931039 42.24420828072081 0 0 0
3291 1 11.042698704739562 7.400122904385478 39.83772545203465 0 0 0
3733 1 15.191658653738036 8.841098547647457 42.180208718161786 0 0 0
3335 1 15.895995322816704 10.216981459130128 39.82324660694256 0 0 0
3295 1 16.163618262577607 7.192895815474322 39.77741522617695 0 0 0
3734 1 17.76791233348721 10.312218076405903 42.22813572270319 0 0 0
3336 1 18.619898603057496 8.835010526414155 39.94664387333527 0 0 0
3694 1 17.902640596250073 7.291967804077919 42.08647231012472 0 0 0
3737 1 20.284046421457024 8.779566790811147 42.29420699245606 0 0 0
3738 1 22.932975310210583 10.310680167269377 42.2661861327669 0 0 0
3339 1 21.117249480829592 10.346208365288007 39.85837342088541 0 0 0
3698 1 22.79339486973309 7.439105027474828 42.28511217778353 0 0 0
3299 1 21.240339775224744 7.306438828460962 39.876466959378234 0 0 0
3741 1 25.530033585231063 8.858408030010093 42.287086397721964 0 0 0
3340 1 23.701676869755296 8.734448674085924 39.86929538126275 0 0 0
3343 1 26.36081556094986 10.132611760997026 39.88021677720563 0 0 0
3303 1 26.398121242727832 7.35922996950001 39.854159416379 0 0 0
3742 1 28.0432403364396 10.27016962767556 42.2579641491717 0 0 0
3344 1 28.83762939569207 8.933581383793301 39.740791122447526 0 0 0
3745 1 30.669846394477307 8.928563356258243 42.150628433897865 0 0 0
3702 1 28.01412262502538 7.369986671233075 42.268336275958454 0 0 0
3347 1 31.341230067365977 10.470131010731112 39.89280436887218 0 0 0
3746 1 33.18661311594656 10.315181090210299 42.18342859805744 0 0 0
3706 1 33.17152716265319 7.382812701973452 42.15270802021949 0 0 0
3307 1 31.47614284324937 7.461349627457887 39.84209153365165 0 0 0
3348 1 34.00536359621458 8.94065225743276 39.93392976753877 0 0 0
3351 1 36.67813232081974 10.274465819620714 39.76846062245421 0 0 0
3749 1 35.69030963201956 8.878249362101291 42.27032539117875 0 0 0
3311 1 36.64882270221982 7.362108670265758 39.92406667816703 0 0 0
3352 1 39.19183718226317 8.797679616564245 39.80085900969612 0 0 0
3750 1 38.33904047054055 10.128713562566519 42.18290004217397 0 0 0
3710 1 38.36359400222486 7.384801591833344 42.33564066497359 0 0 0
3714 1 43.405301941579324 7.314181247552979 42.22853968434843 0 0 0
3355 1 41.72336509390868 10.362199045101406 39.74453611275303 0 0 0
3356 1 44.396528906115236 8.883815937953681 39.92870498751165 0 0 0
3753 1 40.94802179278541 8.757311259585782 42.19680534115519 0 0 0
3754 1 43.51326809910098 10.250648831606613 42.313561658518736 0 0 0
3315 1 41.73391001741096 7.320849643670902 39.78099520491741 0 0 0
3359 1 46.965930884970334 10.298473459064336 39.968506253059104 0 0 0
3757 1 46.10943890387051 8.87930095658113 42.288543613166084 0 0 0
3319 1 46.84220009609787 7.449053201911287 39.967906383202624 0 0 0
3718 1 48.5032091364195 7.303808069744003 42.21978780296849 0 0 0
3360 1 49.38623005644173 8.708053933040635 39.85476573543877 0 0 0
3758 1 48.58207562915298 10.342864174764689 42.180063035519254 0 0 0
3761 1 51.077650006660186 11.880157518818958 42.234113614698046 -1 0 0
3762 1 2.5038393324484556 13.250466976274517 42.1659636940807 0 0 0
3363 1 0.6980951135000553 13.271527992269661 39.791317837320875 0 0 0
3765 1 5.022693786439055 11.940268821324876 41.92459471856339 0 0 0
3364 1 3.2590242893020376 11.926342713792206 39.7425053875306 0 0 0
3367 1 5.842753324086657 13.333649414908608 39.684424119615294 0 0 0
3766 1 7.577306632419674 13.37953358202657 42.07809591652586 0 0 0
3769 1 10.063866955188034 11.762301874832644 42.19275929226007 0 0 0
3368 1 8.476339165607573 11.760821448194765 39.699265420701494 0 0 0
3770 1 12.757617480451252 13.311554035805392 42.1681152334645 0 0 0
3371 1 11.094444464669888 13.316292660582123 39.821455099826 0 0 0
3372 1 13.421391097857777 11.80673815310237 39.858334132865004 0 0 0
3773 1 15.132819485021079 11.718895647417572 42.1940481959489 0 0 0
3375 1 15.988267452026054 13.088611952912691 39.768919441976706 0 0 0
3774 1 17.7104311899034 13.214084138687065 42.099413665456375 0 0 0
3376 1 18.674291657188252 11.746313083571472 39.75215310099125 0 0 0
3777 1 20.250137637573033 11.806288315101536 42.20769272876477 0 0 0
3778 1 22.881696478450348 13.246349329120774 42.11545409632844 0 0 0
3379 1 21.18722266995042 13.28011030423818 39.80454150331099 0 0 0
3781 1 25.655847794647528 11.671135773826936 42.177233838171745 0 0 0
3380 1 23.77133948152588 11.69251425824829 39.933036829753405 0 0 0
3383 1 26.406826444397314 13.185923927148526 39.94079120767189 0 0 0
3782 1 28.12331299116505 13.266560629416482 42.28967575772174 0 0 0
3785 1 30.667662874711187 11.86425392432016 42.14903089937545 0 0 0
3384 1 28.810483038006822 11.881166985215796 39.7785242992344 0 0 0
3786 1 33.245419149855536 13.267445878619384 42.08769589109392 0 0 0
3387 1 31.48948638880451 13.208831640510303 39.806970875419196 0 0 0
3789 1 35.75099892118888 11.81948551967783 42.09466677137278 0 0 0
3388 1 34.13664904424782 11.781513496148666 39.827889678496696 0 0 0
3391 1 36.64863529928651 13.237580329575486 39.784840637987976 0 0 0
3790 1 38.229869831098355 13.140620615370164 42.244640751642336 0 0 0
3392 1 39.21813943002972 11.665505370690092 39.90694080585865 0 0 0
3793 1 40.97208675667491 11.620724308971749 42.18126508690055 0 0 0
3794 1 43.43465201830762 13.228761597590122 42.198993708729176 0 0 0
3395 1 41.82705726802281 13.293449836113618 39.82204015840783 0 0 0
3396 1 44.31018822925418 11.910361267006829 39.928579999626656 0 0 0
3797 1 45.98574872821176 11.853050137470689 42.2049837270267 0 0 0
3399 1 46.87542309954392 13.25477758295282 39.76015021878436 0 0 0
3798 1 48.5662533920307 13.2790446740428 42.12600300361977 0 0 0
3400 1 49.41947588998268 11.783378340292082 39.87031056615737 0 0 0
3841 1 51.084634741934074 17.633858852888523 42.162542914657095 -1 0 0
3801 1 51.0549590340151 14.812994602507363 42.143807392437814 -1 0 0
3802 1 2.581824370201355 16.192168410718153 42.12151907604392 0 0 0
3403 1 0.8729926756813242 16.280532269963473 39.89138035052152 0 0 0
3845 1 5.0061412553581 17.793872707966543 42.20530476187285 0 0 0
3805 1 5.044820607652935 14.844855168631726 42.08464285787786 0 0 0
3404 1 3.2958787649559196 14.896650725896317 39.925949754697726 0 0 0
3407 1 5.843697536484524 16.225195395683556 39.72132633691117 0 0 0
3444 1 3.359844569606355 17.725342112420464 39.734361041582865 0 0 0
3849 1 10.058839980531523 17.813701329571543 42.1547356519408 0 0 0
3806 1 7.515979224348445 16.37668682718985 42.11918248176886 0 0 0
3809 1 10.160402804625022 14.707451245025167 42.048351787113994 0 0 0
3408 1 8.396635925941634 14.755004387868524 39.65292921999624 0 0 0
3448 1 8.47693672455736 17.729166041149348 39.750001784075465 0 0 0
3810 1 12.79161765131495 16.174604501619392 42.21227577485012 0 0 0
3411 1 10.992765860702645 16.186022120406456 39.77885167271469 0 0 0
3412 1 13.565293786704393 14.699540889824982 39.853788606021986 0 0 0
3452 1 13.531095078734765 17.734490070649507 39.86571350766349 0 0 0
3853 1 15.346006714102096 17.727232871573513 42.151981968867155 0 0 0
3813 1 15.375152837928235 14.708505822714029 42.10838123254037 0 0 0
3415 1 16.14151856539108 16.14110721302894 39.64282555579165 0 0 0
3814 1 17.730321117369858 16.25859939703559 42.102501938562824 0 0 0
3416 1 18.621967667013273 14.629896489552783 39.979156304401684 0 0 0
3456 1 18.539396996564196 17.701784950275695 39.833207065919375 0 0 0
3857 1 20.290776474768826 17.837122921193924 42.298897593538285 0 0 0
3817 1 20.313727276868704 14.762691331148831 42.12500426307578 0 0 0
3818 1 23.073699504860624 16.24931198903991 42.16556914915832 0 0 0
3419 1 21.21832572504601 16.15992496244435 39.89980401680212 0 0 0
3861 1 25.523283372428832 17.640306532761038 42.233401981830845 0 0 0
3460 1 23.757044060882674 17.724590372025936 39.872304641560795 0 0 0
3821 1 25.50139691408737 14.7189379704047 42.20493221403559 0 0 0
3420 1 23.77847136151212 14.736230623312649 39.913227812247996 0 0 0
3423 1 26.364840327008704 16.096903882336292 39.81679965255246 0 0 0
3865 1 30.714158180930013 17.68296764496823 42.31269368083739 0 0 0
3464 1 28.95172907665214 17.610192036925575 39.85298489764374 0 0 0
3822 1 28.072404899222136 16.245743968736335 42.28785752748172 0 0 0
3825 1 30.67862445562839 14.832768998086792 42.26873138900014 0 0 0
3424 1 29.062295962635552 14.8016433254427 39.86609963005321 0 0 0
3826 1 33.3274085055419 16.27711403289277 42.13714562178839 0 0 0
3427 1 31.590785353419474 16.145544259620877 39.85707877005935 0 0 0
3869 1 35.86960730135675 17.810430869500586 42.064109847456706 0 0 0
3468 1 34.01929628002503 17.68367269241991 39.74210436950571 0 0 0
3829 1 35.80114092237575 14.796063077786878 42.07054460630282 0 0 0
3428 1 34.015925139883066 14.71331421108163 39.720731401841356 0 0 0
3431 1 36.739666700399695 16.197634375403297 39.62865764578858 0 0 0
3472 1 39.20816255587269 17.681464638744437 39.970487677095505 0 0 0
3830 1 38.383196838620776 16.241023685569566 42.295991032273434 0 0 0
3432 1 39.26809496518375 14.84403033457301 39.85541399276267 0 0 0
3476 1 44.285096744654396 17.84142117073953 39.93658486324463 0 0 0
3833 1 40.84948139664165 14.72040666882945 42.169362079889595 0 0 0
3834 1 43.533882056454985 16.128200039029615 42.195821124516875 0 0 0
3873 1 40.882500589998756 17.702047164174253 42.23388450596845 0 0 0
3435 1 41.8203589618807 16.257763267114306 39.90904839898515 0 0 0
3436 1 44.29176117953867 15.008910579651111 39.808828023981654 0 0 0
3837 1 45.961284614130676 14.687254138652428 42.19675131332109 0 0 0
3877 1 45.94950317053002 17.87649880181941 42.134622900317765 0 0 0
3439 1 46.94456765992342 16.31827500955361 39.91468725690854 0 0 0
3480 1 49.428954622113196 17.71110010607336 39.883107398810616 0 0 0
3838 1 48.538785406014455 16.17357193311733 42.2145109504628 0 0 0
3440 1 49.508885252359036 14.756967276349807 39.810291805019375 0 0 0
3842 1 2.396512589474934 19.27921841936231 42.13130720234075 0 0 0
3881 1 50.99957744882493 20.67261287730024 42.21657370296747 -1 0 0
3443 1 0.7749653072145133 19.233941512471723 39.86702689424408 0 0 0
3484 1 3.4012296109433144 20.621458872211498 39.74927000443852 0 0 0
3885 1 5.089452066845564 20.583658350296922 42.26748070614652 0 0 0
3447 1 5.850225990570106 19.326903108777188 39.79357540003932 0 0 0
3846 1 7.583293429562843 19.342980617683047 42.13260303085049 0 0 0
3488 1 8.496938114851977 20.918834028809798 39.89406758553793 0 0 0
3889 1 10.290679951765785 20.815028203412723 42.17182248174595 0 0 0
3850 1 12.676862318515916 19.03535110158731 42.14639628734717 0 0 0
3492 1 13.709056022415744 20.85736771986781 39.752391754376916 0 0 0
3451 1 10.939487829987753 19.203829448895227 39.87502174597634 0 0 0
3893 1 15.290072172432108 20.716596198660035 42.14469150057926 0 0 0
3455 1 16.11527675416794 19.159322462091936 39.75861909769937 0 0 0
3854 1 17.889426385623022 19.250475889747612 42.238716309739466 0 0 0
3496 1 18.65301962570283 20.58409437157954 39.79539009307569 0 0 0
3858 1 23.084704844253515 19.256600780155587 42.10681490464319 0 0 0
3459 1 21.281377980536917 19.022875274270532 39.86641572736091 0 0 0
3897 1 20.3578337581695 20.582351524426016 42.1817834009324 0 0 0
3463 1 26.612984585091276 19.108568932669577 39.90440453846159 0 0 0
3901 1 25.697673716602477 20.651382882365304 42.208525605745166 0 0 0
3500 1 23.900098262764693 20.60496089821808 39.89763707225531 0 0 0
3862 1 28.119593185043353 19.102152541444262 42.23445850743743 0 0 0
3905 1 30.748432149635924 20.61442628611006 42.142642975097495 0 0 0
3504 1 29.107336550847993 20.53604023830019 39.62270330885163 0 0 0
3866 1 33.219991770800135 19.21372405782001 42.1303103763296 0 0 0
3467 1 31.565639234034972 19.060630167589196 39.79633100550784 0 0 0
3471 1 36.62229127010242 19.1414702190771 39.873098386857805 0 0 0
3909 1 35.794013962046435 20.666673193248215 42.262278556812106 0 0 0
3508 1 34.00465507321367 20.63089588901095 39.87945412035423 0 0 0
3870 1 38.40200864210324 19.242648008278188 42.29882615984262 0 0 0
3512 1 39.154299484802635 20.66449407252719 39.76298310902328 0 0 0
3475 1 41.70213362467818 19.304807791741368 39.84738578490098 0 0 0
3913 1 40.84901723311103 20.70165846313344 42.15783099904061 0 0 0
3874 1 43.42167376941036 19.333910296619536 42.22234903819859 0 0 0
3516 1 44.21738583800236 20.73481319255474 39.797152873226814 0 0 0
3479 1 46.763398997052235 19.28975690133506 39.72684652168247 0 0 0
3917 1 45.90262491669991 20.74640158328257 42.09323928726043 0 0 0
3878 1 48.47499337601246 19.129205513676617 42.237030336164295 0 0 0
3520 1 49.338157388063834 20.711140773105498 39.84453625308699 0 0 0
3483 1 0.7465361860321174 22.16604416646696 39.7203431602559 0 0 0
3921 1 51.13532306138523 23.69071399306506 42.08474270113335 -1 0 0
3922 1 2.4201880578896158 25.17736605462801 42.21490803312403 0 0 0
3523 1 0.6070294957910006 25.132983076480407 39.729841339252864 0 0 0
3882 1 2.4282088244687183 22.074906878738815 42.10449141418088 0 0 0
3487 1 5.837307859986591 22.12632400709682 39.79046609356186 0 0 0
3925 1 5.06284797008457 23.6513810224399 42.20789277839319 0 0 0
3524 1 3.3157891450434964 23.6039094303689 39.88784875723966 0 0 0
3527 1 5.925524031398787 25.21047824806835 39.9234542237531 0 0 0
3926 1 7.5716186486170125 25.08273509032403 42.3024549992813 0 0 0
3929 1 10.266652848412178 23.685657637493634 42.239161797256074 0 0 0
3528 1 8.369677210266223 23.80129907036953 39.783032498049245 0 0 0
3886 1 7.673039191811979 22.193622297170833 42.0956442508726 0 0 0
3930 1 12.705585917467035 25.08714556650834 42.11741940151751 0 0 0
3531 1 11.210492931892045 25.19776233337457 39.7411742826365 0 0 0
3532 1 13.648640519707365 23.662185752968433 39.875007609651846 0 0 0
3890 1 12.853226432241465 22.09044825237612 42.12470511716508 0 0 0
3491 1 11.035892318162192 22.213436698166568 39.714878968559745 0 0 0
3933 1 15.373799347450516 23.50812133343009 42.26577097264865 0 0 0
3535 1 16.156651033635644 25.08362458195768 39.927861873803245 0 0 0
3495 1 16.088777256296154 22.19579483544569 39.77007340420601 0 0 0
3934 1 17.94798282387752 25.036792704497643 42.26516042753263 0 0 0
3536 1 18.621088347771423 23.678704045953694 39.75545987424831 0 0 0
3894 1 17.860405520651284 22.151613802882203 42.14525403549761 0 0 0
3539 1 21.162573055335663 25.05652580727115 39.892385682303676 0 0 0
3898 1 23.074915315026296 22.018667959801554 42.205820053128676 0 0 0
3937 1 20.460165514926928 23.55146302229211 42.1389362627679 0 0 0
3499 1 21.31548250939819 22.1178782455983 39.75870247206725 0 0 0
3938 1 22.92679966028057 24.993684746792198 42.092183096740854 0 0 0
3540 1 23.85480659202288 23.382520731325684 39.881518524223445 0 0 0
3543 1 26.46405575435016 25.0456673161234 39.77562391202644 0 0 0
3941 1 25.627702618437826 23.61207435492056 42.0906737444831 0 0 0
3503 1 26.50203321190043 22.10437376272906 39.90573272928411 0 0 0
3544 1 29.003461428598058 23.48012120022115 39.76533404598639 0 0 0
3902 1 28.252809954335834 22.19392586645497 42.19837762728811 0 0 0
3942 1 28.143547006361203 25.031472776169004 42.21694138254124 0 0 0
3945 1 30.62531182775627 23.614760183984956 42.27886821896074 0 0 0
3906 1 33.219163593579424 22.21302870348535 42.276279568037005 0 0 0
3547 1 31.58722276214948 25.01138085762497 39.727648618715826 0 0 0
3946 1 33.26092363947819 25.19641310137945 42.122303076073955 0 0 0
3507 1 31.45686109113292 22.117307656690173 39.723263800009 0 0 0
3548 1 34.082877555929144 23.633919426168866 39.78224415724911 0 0 0
3551 1 36.68904513236134 25.139286690145674 39.88259088487294 0 0 0
3949 1 35.68380033289024 23.590540714888796 42.10900612189282 0 0 0
3511 1 36.514909049234745 22.17848592654706 39.86384816675528 0 0 0
3910 1 38.23982519537121 22.137073360077352 42.14015518099625 0 0 0
3552 1 39.19101821659386 23.74183028855927 39.86573842902281 0 0 0
3950 1 38.17717598477391 25.16583051875471 42.09476525411431 0 0 0
3914 1 43.38170336995891 22.17682933049558 42.13252584001171 0 0 0
3953 1 40.805073868333665 23.702714465909978 42.15568843589925 0 0 0
3515 1 41.62839984938765 22.289257056795137 39.8582339814665 0 0 0
3954 1 43.43183930004578 25.182150329514833 42.0653788431217 0 0 0
3555 1 41.877236722567176 25.222863789540227 39.716414585773926 0 0 0
3556 1 44.35321136417667 23.54563745203326 39.74100785654469 0 0 0
3957 1 46.029361192085744 23.638397733128862 42.26816448080807 0 0 0
3519 1 46.77319598787571 22.239884962243103 39.76111560911212 0 0 0
3559 1 46.78094753583568 25.21850969770503 39.68459739994585 0 0 0
3918 1 48.47343591911243 22.12933206966182 42.208020577979084 0 0 0
3958 1 48.435192983753154 25.108718993587466 42.051001510213815 0 0 0
3560 1 49.457651714897835 23.634938117747957 39.754735702945 0 0 0
3961 1 -0.053975275012505666 26.595014805098295 42.035534879961375 0 0 0
3962 1 2.399999331266222 28.10147559568295 42.124487006271806 0 0 0
3563 1 0.7129398346125008 27.93536571865026 39.86841636449741 0 0 0
3965 1 4.982912564630272 26.5954325748464 42.23373631402958 0 0 0
3564 1 3.2347798445123352 26.652228447970295 39.886457635510915 0 0 0
3567 1 5.888964005542961 28.05225713201674 39.8605941160129 0 0 0
3969 1 10.275655099953653 26.478910460117213 42.20418326585951 0 0 0
3966 1 7.716562024526241 28.06469360568049 42.16432183254897 0 0 0
3568 1 8.410559324461193 26.637976676073762 39.83812408662633 0 0 0
3970 1 12.703358844680276 27.974503260093343 42.16248739945513 0 0 0
3571 1 11.040979992167095 28.169800217163733 39.85967932533279 0 0 0
3572 1 13.647352204171398 26.58533929158572 39.830487901158776 0 0 0
3973 1 15.387569080605989 26.49361555702332 42.36127974467322 0 0 0
3575 1 16.078469039689363 27.993257451973044 39.77921020147472 0 0 0
3974 1 17.825874860166188 28.13968561310722 42.25253390499761 0 0 0
3576 1 18.607261991132592 26.601781806785574 39.68855179850859 0 0 0
3977 1 20.408018829888636 26.4438812796908 42.205571639874805 0 0 0
3978 1 23.025932744721743 27.876282515037808 42.097005528992234 0 0 0
3579 1 21.33250601297043 27.962610933551844 39.843591908176535 0 0 0
3981 1 25.59630872232149 26.444053921793817 42.072730669120695 0 0 0
3580 1 23.853413149989574 26.479243418062325 39.81662339403678 0 0 0
3583 1 26.467771264508375 27.95752725377237 39.854199898886435 0 0 0
3982 1 28.137907913266464 28.050500948137845 42.109146481956714 0 0 0
3985 1 30.638653580939227 26.569032197829806 42.139573370295025 0 0 0
3584 1 28.95752222014873 26.592113004168475 39.76045598592727 0 0 0
3986 1 33.269046161275256 28.05526852804237 42.14412621335152 0 0 0
3587 1 31.4479794920168 27.97603317799939 39.78875952130665 0 0 0
3989 1 35.75877904945189 26.667751810878272 42.219126773869775 0 0 0
3588 1 33.98346658560487 26.59402873070038 39.68260258531597 0 0 0
3591 1 36.68966506479812 28.0866267844696 39.86072961348128 0 0 0
3990 1 38.29463401736214 28.037900337186464 42.28711706632947 0 0 0
3592 1 39.12270750213423 26.719804864794035 39.90696926772766 0 0 0
3993 1 40.87426043146064 26.577423307993335 42.12685292584283 0 0 0
3994 1 43.300128345621815 28.02537868901787 42.149890996923425 0 0 0
3595 1 41.77524603356815 28.137691436173846 39.83329255333591 0 0 0
3596 1 44.35839892216373 26.682358813420883 39.664578693973574 0 0 0
3997 1 45.94680787035557 26.554335460796388 42.125345563009034 0 0 0
3599 1 46.88205182117184 28.05095336137591 39.733085666512665 0 0 0
3998 1 48.57424456259403 28.00690432054803 42.037119301768485 0 0 0
3600 1 49.39637566140276 26.67073818442693 39.56198581452759 0 0 0
3603 1 0.6439300458063912 1.4916170031611147 44.546075309063816 0 0 0
3604 1 3.3774787105287376 29.49622204901491 44.59428986117107 0 -1 0
3607 1 5.9896012090859285 1.4348112300366098 44.51060325054452 0 0 0
3644 1 3.28062818259887 2.9095773153622964 44.5065103079089 0 0 0
3608 1 8.658583069290547 29.46381023694459 44.58803118415729 0 -1 0
3648 1 8.437719325602137 2.9187773464861624 44.47062912724205 0 0 0
3611 1 11.10473778358663 1.3658380177946507 44.438599512588965 0 0 0
3612 1 13.54728323548109 0.030837534565984162 44.46445815316074 0 0 0
3652 1 13.559616931343438 2.9632619293999327 44.39480700370436 0 0 0
3615 1 16.148971405146863 1.360094549393609 44.4416740299258 0 0 0
3616 1 18.68662488991624 29.435045771347998 44.589763190760515 0 -1 0
3656 1 18.74247306274752 2.8138037126858424 44.512430859174145 0 0 0
3619 1 21.286034563507133 1.3618749136578137 44.585841778600965 0 0 0
3620 1 24.011640121215486 29.434224024986314 44.50541177112242 0 -1 0
3623 1 26.46840197704457 1.2629529559162296 44.54096163966547 0 0 0
3660 1 23.887308125045266 2.9218581073648964 44.39024767814909 0 0 0
3624 1 29.03907522807103 29.474967294865348 44.662712824135916 0 -1 0
3664 1 28.962875066579475 2.917585342840353 44.408999235611155 0 0 0
3627 1 31.605951139415687 1.4352202270139924 44.56160203724129 0 0 0
3628 1 34.16080329735705 0.0026771933236765383 44.50663252172422 0 0 0
3631 1 36.59788445040077 1.5671144931530478 44.44409576737414 0 0 0
3668 1 34.02566969906516 2.9306826206486085 44.59369929808507 0 0 0
3632 1 39.23156206322831 29.47440451058497 44.49991515691744 0 -1 0
3672 1 39.242586927066725 2.8377594668812565 44.54168987193327 0 0 0
3635 1 41.71791477844715 1.2872394126781574 44.42521925471838 0 0 0
3636 1 44.27236548918785 29.443397186246397 44.45960323593161 0 -1 0
3676 1 44.355705902850715 2.7946268167491883 44.40849345308969 0 0 0
3639 1 46.714673250554924 1.3231928937749378 44.437594602292066 0 0 0
3640 1 49.247708813465565 0.0644594911408711 44.467054510162015 0 0 0
3680 1 49.33976419825426 2.880458799147398 44.534478768120536 0 0 0
3643 1 0.8455188153871416 4.432288875396746 44.44577719642131 0 0 0
3647 1 5.822953738999303 4.37297398040693 44.47160454015237 0 0 0
3684 1 3.2854216864166133 5.869778877888314 44.49512007673731 0 0 0
3688 1 8.443262608058074 5.860140682728704 44.629671143085545 0 0 0
3651 1 11.031853323343455 4.294859849369625 44.42166376809982 0 0 0
3692 1 13.65134163823035 5.903177027674019 44.64725346607501 0 0 0
3655 1 16.120493241503212 4.186643944528111 44.5517681451572 0 0 0
3696 1 18.705625728526233 5.636331924528602 44.578007561426936 0 0 0
3659 1 21.26650788919536 4.272024481186593 44.56919704105221 0 0 0
3663 1 26.434462368295122 4.291339494779624 44.445903054779826 0 0 0
3700 1 23.7379141859097 5.778154083475267 44.47544282405849 0 0 0
3704 1 28.739982332108443 5.8771106058689435 44.53550993633414 0 0 0
3667 1 31.568046296077306 4.4161431501814725 44.49351553643147 0 0 0
3671 1 36.7062793780016 4.505298494885833 44.42618028820554 0 0 0
3708 1 34.16023739014274 6.0269283445910045 44.70714885508807 0 0 0
3712 1 39.31291398418681 5.909730351756694 44.39224877629423 0 0 0
3716 1 44.41811591715802 5.838755854456874 44.44730175647954 0 0 0
3675 1 41.77309867079211 4.35911682284768 44.476281636402646 0 0 0
3679 1 46.84807449982287 4.431301015177837 44.4521154050341 0 0 0
3720 1 49.53622874565747 5.940900967489647 44.45000411564923 0 0 0
3723 1 0.783731981228926 10.431843031139051 44.64363856056313 0 0 0
3683 1 0.6876786625158023 7.359524131274437 44.561526964259556 0 0 0
3724 1 3.2808165664311173 8.891292829658909 44.43396411883865 0 0 0
3727 1 5.782732778845595 10.327523756512745 44.34036517147647 0 0 0
3687 1 5.74816656043827 7.321426215012626 44.50650804415043 0 0 0
3728 1 8.473450127973871 8.972510328689706 44.39337039113468 0 0 0
3731 1 11.012149979831033 10.38324114496694 44.46382651605636 0 0 0
3732 1 13.638685675352999 8.769635657922604 44.610324713681536 0 0 0
3691 1 10.984974081586822 7.361821153677876 44.47757695891902 0 0 0
3735 1 16.09919939070479 10.338218534774764 44.51238308357567 0 0 0
3695 1 16.080788367637638 7.2507748475239255 44.51998778169663 0 0 0
3736 1 18.646824290414436 8.87082545445568 44.504220962059314 0 0 0
3739 1 21.25148184238189 10.362563766970444 44.470171636348 0 0 0
3699 1 21.261126303872963 7.323490364874915 44.58139117842829 0 0 0
3740 1 23.78112217851732 8.782858691194058 44.50912082935637 0 0 0
3743 1 26.371079997353334 10.133432514597837 44.6442556725046 0 0 0
3703 1 26.332020770964412 7.194810608738355 44.43679073421756 0 0 0
3744 1 28.87235731655765 8.801008740654193 44.52355614300515 0 0 0
3747 1 31.42520959746198 10.220362303584134 44.515385446565304 0 0 0
3707 1 31.431666966447562 7.288743088100568 44.467366996646646 0 0 0
3748 1 34.06055612683838 8.859184720013086 44.49603535767523 0 0 0
3751 1 36.588886422051104 10.290606233490893 44.58930681239611 0 0 0
3711 1 36.73932058379583 7.4529073817429135 44.523467293395086 0 0 0
3752 1 39.21584422595065 8.89962963409469 44.54869404813927 0 0 0
3715 1 41.71082707981226 7.45070929851428 44.617979365742826 0 0 0
3755 1 41.743668503502974 10.460478942886324 44.49686964061511 0 0 0
3756 1 44.43274877619696 8.782710671113056 44.60098896113057 0 0 0
3719 1 46.86271236554337 7.366548587782991 44.54474087712807 0 0 0
3759 1 46.97437825804286 10.294470861309502 44.67344191293206 0 0 0
3760 1 49.38485579138715 8.887253889711534 44.62109808657725 0 0 0
3763 1 0.7590406260122242 13.3461359679477 44.573518792643114 0 0 0
3764 1 3.309188249839539 11.901071286503937 44.508841482386835 0 0 0
3767 1 5.959959697304165 13.403317341700756 44.375596808453956 0 0 0
3768 1 8.448082270581077 11.962095306368493 44.551689987375944 0 0 0
3771 1 11.221963940865098 13.290209502489347 44.42203917389799 0 0 0
3772 1 13.5389729816011 11.813286699093362 44.598536270887145 0 0 0
3775 1 16.168140956046827 13.178679491342258 44.52792208090744 0 0 0
3776 1 18.723357946916114 11.759401882918038 44.540072412190455 0 0 0
3779 1 21.285599852965245 13.166519577901141 44.408389185171224 0 0 0
3780 1 23.79870947289982 11.590405699229882 44.492185441982095 0 0 0
3783 1 26.34383641141138 13.059372763774396 44.55380043398146 0 0 0
3784 1 29.02630944138939 11.743291612139302 44.61278485335011 0 0 0
3787 1 31.523745868475682 13.31527348175544 44.47466214008401 0 0 0
3788 1 34.039139734882326 11.88186447588174 44.38091287057323 0 0 0
3791 1 36.54896633561344 13.2242883420949 44.431266863731395 0 0 0
3792 1 39.13533379862278 11.753663352236407 44.43653523623769 0 0 0
3795 1 41.624277290131246 13.214037771633897 44.54379578941542 0 0 0
3796 1 44.287478665607466 11.759542073461255 44.44866922209663 0 0 0
3799 1 46.86213645824185 13.24760303648765 44.51684323658459 0 0 0
3800 1 49.45161898210705 11.832662820660337 44.57721313063194 0 0 0
3803 1 0.71566207724411 16.355814842576585 44.49266205718612 0 0 0
3844 1 3.2816475865487975 17.78719656616468 44.51709147582278 0 0 0
3804 1 3.4525452040448497 14.830669941844029 44.48775186297012 0 0 0
3807 1 5.964915803642296 16.33338464727678 44.43467344371793 0 0 0
3848 1 8.51006343027724 17.794664770927326 44.50952903464762 0 0 0
3808 1 8.44590038837102 14.829324907128374 44.33794023700096 0 0 0
3852 1 13.605572752225987 17.638046825036803 44.60126833823533 0 0 0
3811 1 11.043647588425745 16.288348522081428 44.571132255946004 0 0 0
3812 1 13.70098398291673 14.768569362120754 44.51970861787151 0 0 0
3815 1 16.230232276104363 16.21917557438384 44.481034316200464 0 0 0
3856 1 18.605020773217756 17.6980559039393 44.5554405555175 0 0 0
3816 1 18.578190545794154 14.774320031964773 44.60244317538093 0 0 0
3819 1 21.191227264388214 16.20650350474407 44.52738382455459 0 0 0
3860 1 23.796206652826488 17.703375419098975 44.55292141056253 0 0 0
3820 1 23.870863598038856 14.462969338137558 44.54554054485025 0 0 0
3823 1 26.313077067280368 16.087114197774667 44.62775714257872 0 0 0
3864 1 28.919183491853964 17.64485360917108 44.5856178809503 0 0 0
3824 1 28.872186406070835 14.828531988956323 44.50310710640613 0 0 0
3827 1 31.563266254120418 16.310312554559196 44.513016249485055 0 0 0
3868 1 34.27305131206239 17.800829479890496 44.47784280352589 0 0 0
3828 1 33.991948618079476 14.835361058352154 44.56978093514064 0 0 0
3831 1 36.76342045410817 16.20179414035963 44.52462440186244 0 0 0
3872 1 39.18860245502847 17.653538778755347 44.621386760129 0 0 0
3832 1 39.18342794612447 14.703949214110262 44.57058893326479 0 0 0
3835 1 41.68088896916018 16.19064564561434 44.52045141618163 0 0 0
3836 1 44.18107550045825 14.677063328412572 44.61215717618958 0 0 0
3876 1 44.208407886026436 17.6999955979921 44.622944555848285 0 0 0
3839 1 46.82494384978473 16.408800147345247 44.559483381510034 0 0 0
3840 1 49.382964615759406 14.748787081434623 44.569802705455245 0 0 0
3880 1 49.498288918119925 17.652860669092682 44.564451973195915 0 0 0
3843 1 0.7612528435670467 19.343446000135266 44.59119936642336 0 0 0
3847 1 5.98354103608869 19.276717089864825 44.502353851199 0 0 0
3884 1 3.2451747538203537 20.784382821054997 44.4783593438163 0 0 0
3888 1 8.493557172781047 20.75984319365748 44.58123352107773 0 0 0
3851 1 11.058110887547512 19.232739833541807 44.54973599374909 0 0 0
3892 1 13.795180338914252 20.66152783371261 44.41226712023346 0 0 0
3855 1 16.20923674423863 19.08055322251527 44.55776681101863 0 0 0
3896 1 18.74790980580647 20.588598167045888 44.54185575210008 0 0 0
3859 1 21.381098031814936 19.014458732072754 44.495179884271664 0 0 0
3863 1 26.37301016124205 19.11175838524897 44.559595231848064 0 0 0
3900 1 23.857683431088063 20.559572536671162 44.50896612987094 0 0 0
3904 1 29.013952314485262 20.72748864450778 44.58886581404218 0 0 0
3867 1 31.434302096285908 19.22794768118876 44.503098872340225 0 0 0
3871 1 36.74252716060822 19.145443183358005 44.625028585390346 0 0 0
3908 1 34.183398216090794 20.728880295663558 44.52949300222628 0 0 0
3912 1 39.197844191054855 20.676193767397784 44.6598064835061 0 0 0
3916 1 44.25539446826774 20.590768912298273 44.531590012797 0 0 0
3875 1 41.600696824183544 19.20493354209802 44.66943915475821 0 0 0
3879 1 46.84843572425169 19.282644830003875 44.44341732354003 0 0 0
3920 1 49.25174121184703 20.61221537002166 44.49353119660028 0 0 0
3923 1 0.6842695001744944 25.013019693822564 44.364815499883015 0 0 0
3883 1 0.4216158102614286 22.201538166162116 44.502654552206195 0 0 0
3924 1 3.378577526346088 23.74973497928749 44.49518563739584 0 0 0
3927 1 5.807768922274121 25.189726544103088 44.61359577555698 0 0 0
3887 1 5.915455540263195 22.13475013061172 44.583729730491925 0 0 0
3928 1 8.55883682062541 23.518466683219103 44.51840910306503 0 0 0
3931 1 10.956543160772915 25.135348998812134 44.72179035762803 0 0 0
3932 1 13.632527539803519 23.6111431004026 44.47779707479844 0 0 0
3891 1 11.16319028101546 22.100205289491086 44.62858465851499 0 0 0
3935 1 16.106102437791893 24.95697177264617 44.62672921734837 0 0 0
3895 1 16.3194628991685 22.174241584025665 44.63699547895152 0 0 0
3936 1 18.78075401457504 23.53553040909037 44.57478526477249 0 0 0
3899 1 21.310280049715278 21.97862858229137 44.64740344549697 0 0 0
3939 1 21.276377720828155 25.095418916500975 44.39253567208328 0 0 0
3903 1 26.52468995137661 22.111345439909435 44.53998379637134 0 0 0
3940 1 23.904038420794073 23.58958725223242 44.569532748835634 0 0 0
3943 1 26.36238929494182 25.029226951462306 44.51444382608382 0 0 0
3944 1 28.930362527982457 23.642798708738972 44.64357861403725 0 0 0
3907 1 31.4937615547914 22.085662442510653 44.38901786145904 0 0 0
3947 1 31.447630981651255 25.136795446211295 44.477687962905215 0 0 0
3911 1 36.71573870592768 22.150738563380344 44.59338119548457 0 0 0
3948 1 33.959712896744534 23.78860870547343 44.491664955908 0 0 0
3951 1 36.397798539286896 25.06689827702175 44.533866335817876 0 0 0
3952 1 39.06808965264962 23.607798456367682 44.32270101082731 0 0 0
3915 1 41.631367411475864 22.140405060557725 44.618517657210226 0 0 0
3955 1 41.7449823051562 25.045600424312802 44.51355320595755 0 0 0
3956 1 44.207355332251964 23.63978918058539 44.680185801494204 0 0 0
3919 1 46.72360222460429 22.218546569697025 44.5570911456033 0 0 0
3959 1 46.743120821970095 25.200655694154747 44.511718082504665 0 0 0
3960 1 49.26954253409443 23.65307530261792 44.48639638881261 0 0 0
3963 1 0.6883551792878064 27.927404358876785 44.463880424427224 0 0 0
3964 1 3.3243408307160776 26.576133964005564 44.5320097118293 0 0 0
3967 1 6.0523501894174645 28.04155850872305 44.47777429154065 0 0 0
3968 1 8.423288909573033 26.469059276945828 44.63569536032523 0 0 0
3971 1 11.116490929408215 28.08361478023422 44.33865501011282 0 0 0
3972 1 13.650300963149279 26.540177922345066 44.467708508614 0 0 0
3975 1 16.133958492494145 28.034193162245877 44.44071740491838 0 0 0
3976 1 18.77982285939506 26.5208813558201 44.48024373604601 0 0 0
3979 1 21.341880167701248 27.953692054762932 44.53132259334734 0 0 0
3980 1 23.998207230875998 26.414258582084905 44.441497306753554 0 0 0
3983 1 26.516557735938473 27.986340414020432 44.5645860338858 0 0 0
3984 1 29.017158843951076 26.544994000238617 44.52124811205565 0 0 0
3987 1 31.574027968342424 28.095988503145065 44.507537490124896 0 0 0
3988 1 34.047229987275045 26.682824278458604 44.42833990556053 0 0 0
3991 1 36.54342708840073 28.137685429222834 44.440602897348505 0 0 0
3992 1 39.02635211177302 26.43785530169548 44.59882490121003 0 0 0
3995 1 41.61345842611493 27.93781822135316 44.529952381063765 0 0 0
3996 1 44.15189121350707 26.556308022679993 44.46065585935518 0 0 0
3999 1 46.78223457401435 28.14392936187283 44.58961368652081 0 0 0
4000 1 49.40095890891823 26.55618535467805 44.356513116286955 0 0 0

Velocities

1 -0.9148250626080872 0.6477657904550076 1.6286751534077581
2 -0.2633637233074413 1.014011995154882 -1.247664037369362
3 -2.786577854161055 2.8749749048099758 4.497302944206491
41 2.918032462507483 0.22516329239589639 0.15146499888991713
4 5.774838328780829 0.8897738433246813 1.107560235470507
5 1.5902075667003999 1.4036880962129492 -0.3111222861513662
7 -3.5063487241971463 4.399225385514386 -0.47642547506713695
44 1.4386122518650313 -0.025885808978424383 3.0445244012553725
45 0.7364164765187248 0.8417367162671447 1.502390678151086
6 -0.6845969390693315 -2.8128671361860067 -0.3780978924604283
8 1.4422039974628116 1.6634334291116974 -0.10219643081468929
9 -0.10331331644119396 -1.0930444899441425 -2.637568131610222
48 -0.05615632363752712 2.4693053854676754 0.45058736296169893
49 3.6702638080762466 3.1726089510381885 1.9058702720495178
10 -0.47166034433372306 1.8434011724149293 1.9190631237931868
11 -0.145843049748732 -1.4832416978647376 -3.686818516681813
12 1.099381536718476 -1.0481263771667724 -1.0927764063994
52 1.1434919194759694 -4.971304581410571 -0.031150622817786727
13 0.5028016456930172 -0.265400388684759 -1.0124901369917718
15 -2.356234376548574 -3.5984082016497974 1.5269867021027896
53 -0.7881399968245826 0.11000593429554668 -1.2197398411883908
14 0.7399460837518198 3.095882889669463 -0.15447351904633339
16 1.0628260529599096 -0.6251381194410964 -3.4464969656508417
56 1.4156127324803747 0.10968889809909661 -0.270568699672007
17 3.2247172153238655 1.9530333699139872 0.5593750409001074
18 2.6041631229389552 -0.720607397915402 0.9152395954409696
19 -1.4733089352721085 2.224550505104775 -0.15215121425616254
57 -0.4790227549622007 0.6321738779081054 0.46998634975202147
20 1.5530261793235483 -0.9168617423840826 -0.300004636722903
21 0.657481014092582 -3.945680676854131 4.51411555396955
23 -0.9617535733398573 -3.153591342944768 -1.2201263823299788
60 -0.38805892520393975 2.6784776069312803 4.394548502786882
61 -2.1037995189454484 -1.209959946951649 -2.7880162470220125
22 -1.7358657782302362 -1.6502194801216372 2.954911460249224
24 0.6308210910777691 -0.5910938413751858 -0.5813693099322641
25 -0.18024464966076775 2.0746773365872806 -3.8691428865989947
64 -2.705282143133012 -3.6006432669999673 3.084929764692862
65 -1.418758612747027 0.20643549542643236 -1.7873479545797775
26 -0.4539595202422301 -1.3085864379092587 1.1419675514121972
27 0.7911047638818256 1.1781775988743604 0.775587667077005
28 -1.2872328939645843 2.5566137222900114 5.544129914889029
29 0.19548301854439798 0.721033827832585 1.2506800270633744
31 -1.9935849482137549 -0.7670544076110676 -1.9180074574681305
68 5.069038989494205 -0.822098394383326 -1.9085741816691415
69 2.594753545199576 2.145445534061406 -0.8496312805361103
30 -0.8489273328158242 -0.571025159790779 0.4382783883213347
32 -3.1356985230510714 -0.14808869525717955 1.3653408119154362
72 1.6215620153957697 -1.5462745420669752 -0.6742871375172617
33 -1.6954991499246803 1.866965184532143 0.7495716028381649
34 2.6392263474417614 1.0326921348542235 3.162529791066616
35 -2.8159639055294163 -1.610976612304561 -0.5072817844862252
36 -2.2372382969524938 2.238317841399496 2.6493850048723275
73 -1.0491119355999023 -1.3021771250162493 -3.573352808579717
76 3.45748943755717 -0.39834402747767345 -1.314516185085085
37 -1.1506425907669908 2.7673237709197402 -0.19340864405864158
39 0.9975150297483903 4.418140494928014 -2.4342668857191403
77 3.400560347682399 -1.8431434536380742 2.0097019280750787
38 -3.268569951821095 -1.7925740335507818 0.22704003247155025
40 1.636206796411755 -0.04989438614713943 -0.06624886988378188
80 0.04667165534903938 1.9773158800961832 2.9729866638383218
42 4.310927512511968 0.10811370982423858 -3.8425373319531557
43 6.907666878567756 4.543780238413025 3.2857096210961334
81 -0.9556147891808541 -2.152721359593389 -0.6354109831846911
47 -1.2468089145764374 1.7206362681815883 -0.20667466438777768
84 -1.8859331743513332 -0.5469299876187358 2.775394690860019
85 1.8514912668672907 -0.12025721139582592 -1.255393933452056
46 -1.8702554279707884 0.5282666972734531 -0.25488157822296525
88 -1.9286200469891484 -1.437719590508908 0.9034764951449252
89 -2.182014051631286 -3.5428741542777553 0.4072222946242798
50 4.772824008566057 3.9554064458476788 1.3341645910472961
51 1.6429208726507167 4.3630768688895705 -2.0436818061218833
92 -0.24513823713369234 -3.4849760436324395 -4.916591003252874
55 -1.9678591090664792 0.23323692280569944 1.1034470623575243
93 -2.0831111266655 2.9736710875698638 1.252374743245765
54 0.49898419646953285 0.2278232223946495 -1.0355502096866689
96 3.8728771508060684 -1.372313231551368 1.8366266281329668
97 0.11763395389700815 -2.528924842163461 -0.016861878091115022
58 -3.978829856235294 2.391463167857006 0.13557533256931828
59 1.8113965702381722 -2.52922665720253 -0.7118940391949385
100 -3.442266662850709 1.4109382810122193 -3.05012130964818
101 -2.8780044427301186 2.8467411304556944 -1.47115673698929
63 0.5307537945081577 3.482865757505666 -2.7240378596052355
104 -3.320543328954962 -3.644751957334822 1.8576429188796089
105 1.1279380336312717 2.2807547782996767 -0.6876313804498043
62 0.327914403032928 2.532300843053233 2.355787374650097
66 -2.2109070670559543 2.261946870393066 2.4902358424386053
67 -0.9314832742816713 2.204586552538515 1.7296950915095723
108 1.1194661449365535 -0.17388488182179754 -0.5924824171264197
109 1.8239486837807337 0.08101800164562704 0.7027407447543482
71 -1.9700889122429797 -5.649940880875625 -1.9351655353789396
112 -1.0386277932830865 -2.479240592504663 2.4999728461768815
70 4.641834888968997 -1.971577494470014 -0.37434925958242665
113 -0.551168644715721 -0.8300474384691936 -0.07798011378007512
116 -6.083807575917483 -2.671827802961218 3.3252856907150776
74 -1.8211226766057969 -4.081114109619329 1.5580345657755328
75 -1.2499512410478328 1.4528871536149432 -4.498008052112115
117 -0.4507802749528438 -1.7407941816607946 3.938158689556719
79 -2.1661958386993914 2.7814247220346906 1.8416459713456874
120 1.9084082977255674 1.7058595494896003 -0.42352726627319215
78 -1.6183900511994416 0.12664353311958804 1.5719933092619278
121 -1.0080353977642156 4.930510524391123 7.375625477925428
122 -0.7054550755077009 -3.329538575897485 -2.049281818051239
123 -0.4942833341099946 4.950613842517926 0.4486001321919593
82 0.8789795795490958 1.3027965633337155 2.5679235424530704
83 -0.3976129715291158 -4.158333269514365 1.6589561924840228
124 2.359665043624545 -0.09734184191764982 -3.14068316616663
125 -0.8415232661448221 2.9043689939700736 -0.9916574807277695
127 -1.5270317621944134 1.6147940520148485 -2.02849422771716
87 1.3598100800595896 -1.5730794741022998 -2.333546032525048
129 2.125059696480968 1.4958692396743993 3.577098039536146
126 0.776778534763281 2.5590970572152854 0.5209731037868129
128 1.8447217984979898 -4.85850112699956 -0.6835765184684646
86 4.04232709328602 -2.405098066258392 -1.5307653925381255
130 -0.12589801571320144 -0.4897471862406844 -0.09678638299095
131 -1.6510424958576888 -0.9445713488308018 -0.5544711952412228
132 0.8190276023760181 2.9962914355394568 3.2572136639353086
90 -2.1533234167211974 2.8226610179675764 -1.7613970309020415
91 3.4827945977082866 -2.9410360443325843 5.532312060602997
133 0.6866690437097359 2.0273205171427264 -1.0177299495069405
135 3.482680185394228 -0.6563082330293667 -2.792610137759723
95 -0.8359406860060409 -3.249116804544901 2.6434592582325216
134 -3.0685975994156363 -2.300837302888742 2.6304563619186374
136 1.6062445628740563 -0.018083998713599916 1.7866379622017987
94 2.9762942983563323 -1.4534594343321923 1.8533004733642189
137 -1.5118979742961234 -0.5961479208535865 0.2843185920163596
138 -2.132850838229198 1.063407115734318 -2.521042285118597
139 0.880804402449394 -1.5912119354060317 3.064518787762113
98 -2.3601618536149083 3.1537011295682755 4.054062302920542
99 5.310489501200886 -2.9487625178446013 3.0026160678643197
140 -1.5418029576269527 -1.9100868808514921 2.042778238193808
141 -0.29102929889208884 -0.7734610567911836 2.0543180294533863
143 4.352488337842728 1.1950469336110785 -1.3392357607124503
103 2.3537945268507094 -0.5391399278697901 0.35311958253607284
142 2.0052683275662067 4.3547429503590935 -2.7833574029145502
144 7.116368038907884 -0.6836481482232949 3.360442931113122
145 -1.2209173363392714 -0.8029117853866579 -1.3433627990925086
102 -0.9570023769881317 3.7404836473249246 -0.47132630966272554
146 -0.11408350748589001 0.13226547336773115 3.3178523892428697
147 0.9691384710279631 1.8792390673432458 -2.1712320874055604
106 2.1309077239089564 -0.3912269928928528 1.7717197385173122
107 -1.4085784941505677 3.6363639223389614 2.5851691576830964
148 3.1127876308165563 -2.2297906773615495 -1.5253739370745412
149 1.3261130604623481 -0.5270283364240707 0.3245238354979801
151 1.6186919695307447 -0.557461189210576 -1.066589597068792
111 2.3253693372035356 -1.7641146274250157 -1.0576288246862706
150 -0.2270506967621535 1.4075498297247113 1.8419302891487959
152 -1.080480629201232 0.26901317864024793 -1.243107209885522
110 2.3927180088104683 -4.647341427850802 -3.8971146451318943
153 0.05482618899676445 -1.162296618605397 -1.2136069105827179
154 0.6872714225370494 -4.111093819521301 0.5501407587013026
155 -2.444674746416503 -1.1648351152614616 2.587436760837476
156 -4.351571420464725 2.403108354498457 3.277476320329704
114 -2.4287664813317225 -0.03257067505066485 1.9356762288623304
115 0.5113820298536714 -2.3208948674846397 3.5900321092369647
157 -0.8230844640995546 -0.4975364039477079 3.2638992315927595
159 -2.0334559327263753 -3.9713461017813496 -0.4978057803333421
119 -1.0057002040712435 -0.6469319164877892 -1.4341327125739678
158 0.021334129420353724 4.552924952264792 3.9987135491671437
160 4.101036422955425 2.799548033374828 -3.5594415359894094
118 -0.8552308741010561 -0.45537157568204734 -1.8129281362353493
161 -2.080684080234874 1.6066509218179084 -2.6249159652982983
162 1.8655247372088668 -3.869026153183673 0.2665834430205942
163 0.17070195035866834 -1.7210204711470822 0.8889862001999834
164 1.4976138959984329 1.7045666405012023 -0.1805403738917843
165 1.335472727642793 0.9018976174055114 -0.7659451371987002
167 -1.7824896163744761 -3.007334304835248 2.847973210259016
166 -1.021567253325394 3.2170731871281597 -1.6685875817055449
168 3.2722841274033225 -2.6039284167716485 -0.15389407306012812
169 -0.7058745663639461 0.20459186197462234 0.1142734987457348
170 0.1144659516207034 1.8773155399047576 2.279143982238745
171 3.6710421957782473 3.739634614607038 3.8470056877896575
172 2.1920432184042085 0.07048911515141486 0.3923632478665674
173 3.9136807465338856 -3.0964408387796545 -2.108823423052826
175 -1.49120007240261 -3.3752764839266596 5.155746859841859
174 -4.540388061171124 -0.08685373099516519 3.155079104374674
176 -0.08863769675198098 2.167902061470246 2.799233433372962
177 -5.0616600912280765 -0.9271803590003597 -0.11157171813301411
178 1.3657473383681142 2.614249933645023 0.3027027568398175
179 1.2447928078612802 2.402527792357353 -0.03497594402827029
180 0.563148041624612 4.170575405659559 -0.34582957317548974
181 3.1819893188422785 0.288940102922273 -2.1142708829345596
183 5.681391655045782 2.616702849545261 -0.9320469743309939
182 -0.4402675182231899 4.968123751781439 -2.168165759530642
184 0.15436495009457932 0.10941231145661232 -1.3504008902101208
185 -0.5899650284259592 0.9632483606234247 -2.0852620363168652
186 -0.8621717893644263 -2.828953550103438 0.21590851524830135
187 -0.8716071467762534 1.2715861464229326 -0.6002094417516054
188 -1.2952113487198424 0.6483240117874384 -1.918639813016983
189 1.3052535544713146 -0.2676773895814627 1.3337854979899582
191 -3.94996047242112 2.0061443142018285 0.8854817949413408
190 -4.119633083348019 3.540429608323927 1.1042853073501129
192 -2.314749588460794 3.0563606811967947 0.0913566413372643
193 -0.13368937521321828 -1.7602505717019807 -0.1379749504710007
194 -2.0772970211671455 0.4318429127290604 0.03359707910101643
195 6.932647232187268 -3.258899699649916 2.52611938606555
196 1.3727569624909417 -2.121609623468508 -1.180466040214942
197 -3.2909944868297987 -3.123685842123621 -2.2336788728534858
199 -3.082679281382884 1.5611708004847626 -0.12177246978642728
198 2.2836474140909613 1.2737396173205546 -0.4360002111260639
200 0.04146488151406909 -2.4002092338421797 0.5654865185985338
201 1.5485015787246799 -1.4167151295867695 1.488666629006804
202 -2.069737862171356 0.7059297738403655 0.2619585408428807
203 -0.4344689643536699 -0.2860540725000657 0.5967517818316336
241 -1.171398969623676 -3.607517410987235 1.4576030072248494
204 3.4900171173690095 -1.3536998770420503 -2.3853477008679906
205 2.704092470946644 0.8824007959983162 4.48338475070146
207 -2.232677114604221 -0.9377407160370798 2.148498279146432
244 -5.095340873710314 3.4148268107222237 0.25670708323846847
245 -2.1700031772156785 1.9729567425324137 -0.753786110021684
206 0.3325741813847842 1.170971650689593 -1.5316002400843332
208 -1.3463357880123195 2.4811524340771482 -2.0245008414217165
209 1.5960518135033621 2.24304612392388 -0.6855284880071159
248 3.6447916736445745 -0.37345356014894804 1.9059523586498237
249 0.19507452709928239 3.0828221819949246 3.240633868876793
210 2.9807229511768716 1.6243004929562015 -1.689206232860802
211 -3.629807858812094 -0.5187790726203626 2.626561528363009
212 -0.6351459026658427 -2.247149982861578 -1.5347222612940365
252 0.16143366856781904 -2.24683250076284 -4.147613339801785
213 -0.7104964946382484 -1.5415167831956564 -4.315748764466956
215 3.3704308194525248 -1.8471842075828684 -0.09064215556842478
253 1.6921539475549852 0.1766198075000819 -3.3104339470630735
214 1.4476222742471228 1.4806675891362657 -1.6009420336808258
216 -2.577630888425293 -1.4444050227223422 1.0146262949469216
256 -1.1769530587599846 0.8595155972956378 -3.55906163382328
217 0.6576973565331743 0.8163788498488181 -0.189298812012692
218 1.9689049924363484 1.5950141004321874 0.1840369510052585
219 2.7265110065237472 2.0507250179715886 -0.4576634915466576
257 3.8082222763276907 -1.3242847617212752 3.2046717424115623
220 -0.9678646511224392 -2.3708090804483914 1.3185403941167153
221 1.5109652562988956 0.045433380882440665 -1.0158975257723704
223 1.7424255604177514 -0.375866300021828 2.532652819473061
260 0.7916517391295541 -0.1652098035712472 -1.1788848736938025
261 1.4937096555616922 -0.4419600767667899 -1.877534867794534
222 0.4043754370630409 3.64825692033154 -1.7581294466869102
224 -1.677438396649151 5.926543577653374 3.743942386300739
225 0.2762563263658141 -1.5047197756967021 -0.8892366349743022
264 -0.11489288694596009 3.0104195819621675 -0.24399756705279543
265 0.24526313778605108 -0.4170478299937641 -2.578905128143362
226 -0.4738975430664849 0.1440307477376245 0.0201536016580621
227 3.5221283390673315 -2.6051019660040353 -1.4648485739747452
228 1.0715741946163715 1.4283187197625198 -0.0849222255585359
229 -0.43472680555482496 -1.472745151149009 -1.039516184307248
231 -0.04824640090642347 1.7576821980393298 -1.746274667234893
268 -4.580630687291972 1.1336836057146826 -2.6060330577095687
269 2.2173821105913136 -1.7341433553056664 -2.8450657471998406
230 -1.68979266393354 2.1420570495459454 0.061555708262079414
232 3.1153715582654664 0.6306392232733381 3.062022849371432
272 -1.1583266462077417 1.8289086134212895 4.177250934043152
233 -4.439109675837296 0.0293071994344228 2.367989862722631
234 -1.1120332640594823 -1.1324226629885576 -2.6866994198461316
235 0.5472249014117171 4.264953008647145 0.7541006914040295
236 0.6271476138253823 2.1234923259093015 0.6291584866846696
273 1.6877798778548407 -1.5450736918153558 2.2226828307402977
276 3.9429631094104276 1.0613510512658697 2.175233598917394
237 1.4552622922829195 2.826961507567482 -1.2456990861048607
239 -4.621974282911082 1.8948112859709925 2.6876806877855888
277 -3.2504747911469023 -0.5894178840314954 0.2385982254195744
238 -1.7024312091580243 -1.2209895716109922 1.003379871718483
240 1.9457985342652766 -0.21911874676642032 2.677361568109502
280 -0.8749718379527238 -1.4397380671437061 -0.5632070843453946
242 1.2666405485962917 -1.2008257534170526 -0.8523887189668988
243 -0.7447390475803568 0.25175019077680927 -1.5554127829730104
281 2.3880828301336896 0.1523592549810226 -0.5360904473738012
247 0.18343379294565748 0.42416378933736404 -0.1906490973732946
284 0.212819629658618 -0.4873261585264118 -5.520844950291315
285 -2.4865590895969705 -0.3822022450237086 1.861876579217096
246 1.2477393190241894 -2.4550476187426926 1.0650443534044125
288 0.7922859233694372 0.5375275132428303 -0.9284647727088825
289 -3.565218207084396 2.1881394507176224 2.6125192536930055
250 1.7284402471408817 -1.4482156441793543 -1.3864539293128257
251 4.701608228884845 0.8871878600209625 -2.7958268165184323
292 -2.3412436081180448 5.099893475577157 1.8174018191601058
255 -1.3225452218206655 5.0330722111672035 -1.4945270819199052
293 -4.7276666455229215 2.0359303036268424 -0.4802389856148806
254 4.0788172079560505 5.9242712820701335 1.9641530111470116
296 -5.350613894133362 -3.493689142491944 0.6504492246938752
258 -0.09202730779126342 2.0174514597657214 -0.827769424314291
259 1.9785670327268128 -3.425635629952658 -1.1374216061104858
297 0.7840960943446665 2.502205360451942 0.36488931647783396
263 3.712976706616777 0.25687503019424923 4.205177629275915
300 -2.4957982443784337 2.5182377395301203 -1.3787324707153303
301 0.8555250701057967 2.022267515166682 0.6492465116616388
262 -2.5314090903292024 2.4126802957705737 0.01378766072591581
304 -0.9250988959818088 0.4766483492460336 0.5139097994637524
305 -1.5998215308763584 0.49724663265695407 -3.169812341799517
266 -1.3739880785896863 -1.586414187751459 -1.3423464568163672
267 -1.0938484081984494 -2.6506072788838604 2.9302010932691727
271 1.001016735016762 3.471729549956346 2.5290279761460837
308 -2.190200741780445 -4.056765796299737 -1.115609260254695
309 -0.0715734460673315 5.388863223660172 -2.5542596956201096
270 -0.6271872858157517 -1.562607168853066 -0.06931828995656256
312 0.9246732165425419 0.03658799687157995 -0.9603139551463221
274 -2.6469534124132794 -0.47600205308315036 2.8201025539665894
275 0.9428874480891009 -3.227465013996142 -0.36787737253518416
313 2.849445316879586 1.6731715761102188 0.49558456887409746
316 -3.988920328839088 -1.9859896006771585 3.8461808232474635
279 -0.5324216276699333 1.6253898615467273 -3.1608333365517294
317 -0.440146502806105 -1.0564267119052653 -2.1877551237183384
278 2.492200332830149 -1.994432396666116 -2.0581347318896377
320 2.889508503049 0.22128727540819643 0.37136013236386267
321 0.7558242743484678 -5.128581599610273 -2.2860078717892174
322 2.284040440079316 -0.41583609955468437 -3.2080537700099976
323 -2.0025912952761717 1.741444795259073 1.9228082923864607
282 3.266151502794245 2.1686773012756575 1.4881754997553067
283 -0.3616608374718351 2.346163106978072 3.1731551464128334
324 2.5883732330205524 0.3206154841149957 0.4365869183702978
325 -4.2781341786680205 2.248167979086041 0.21743151222003396
327 1.6720923554047487 -4.08292502309033 2.0939081711320267
287 0.7112571672923312 -3.576129099423684 -0.30977323410761226
326 -2.657362137601549 -2.0241724967804595 -0.8568385713691623
328 -0.13346185154691514 2.3398150274882874 1.2527011634893384
329 2.423914755951834 2.1452910655609836 5.264033126010387
286 -0.14939850500893687 1.201947894051815 -2.1810716531335066
330 -0.799476092165703 -2.286419242058881 -0.07686867915794315
331 1.8174844114930189 -2.5888186049909025 -3.5385210086417738
332 -2.589971179368039 2.230279898077907 1.893771865197592
290 3.779667954480424 -2.444922770490318 -3.242440721752138
291 4.98484696439849 -6.989821574104632 -0.2622478411881492
333 5.955562265862475 -1.5616944505238597 0.0389266865200431
335 -1.3937065878066088 -0.4204839877159076 -0.5497861638199817
295 -0.6285026166985649 3.904784064425589 -5.552252506820119
334 -2.911096695198617 0.21678864480553295 -0.7372533364688101
336 -2.127093080476098 -2.599713587159551 -2.358379535093232
294 -1.5483928092725037 -1.604393677685195 1.9975925964466517
337 -5.868851895844798 1.7147975412357894 -2.307553844011046
338 1.186135398369861 0.3780691326738435 -1.8142543846096497
339 -0.6605568574734495 2.316674618488084 0.5679086212718196
298 -3.0559423247613786 -1.3861647415776492 0.6838172648307371
299 4.665766944356645 0.18637907532606643 -1.4261524485406127
340 -1.9056819004730858 -0.2881836838789519 -0.18389899825558234
341 1.993065544319555 0.5772333420280272 3.3897093622710237
343 -0.18083281694254677 2.35064419269092 1.1971594514985011
303 -1.2174309790927742 1.6035798015236813 0.5860878823801695
342 0.4321982044944654 -0.3705677688726393 2.4268326531084172
344 0.5046771062577241 -3.088418871175721 1.4036663960321036
345 1.9462990590915437 -3.132086069337539 1.1813598547525321
302 1.0167541289095132 -1.1633080691572788 -1.1483919663626143
346 1.6680090050130039 3.273284873131876 0.36406728656173964
347 1.0655772000612345 -0.2818909352353996 -0.6728076062288706
306 0.36363217079897925 0.6727270572139875 1.673108765271647
307 -0.02879057822094072 3.676000331451012 -0.45280065845241685
348 1.1881947017051795 -1.3020560355128141 -0.4763124477004273
349 -1.1957858095599077 2.8950836412214085 3.5488575840546708
351 -1.6135030033295028 2.6879882781431825 1.5620348809106104
311 3.3448032129713976 1.4682271053998175 0.15259782514094022
350 2.8939081370826543 -0.9783816872758322 2.3961445296188506
352 -2.6198417257359075 -0.4452806578071312 0.16676592883701766
310 -2.0778114624248305 -0.8108089579247155 3.7967531372725123
353 -2.6876054450359863 2.088528462953882 1.8575207088195549
354 0.7583944433355566 0.3509656278298703 -0.5389108675559631
355 4.777891145203499 5.378899770854049 -2.6966601279948095
356 2.566878973499386 -0.36399655573990125 1.9155041880034678
314 0.48858660569738194 2.1165871073778417 0.8300968330864876
315 -0.7773402175757328 -1.593384864511585 4.053213784490991
357 2.3779680760536457 -1.8149504327322015 -0.40263721154957105
359 0.763119371697717 -2.7421776725518443 -4.2687668358272814
319 -0.853643513454131 -1.1104110509385303 4.042215375856901
358 -4.342014337795967 0.8357173821212507 1.2416663066547575
360 6.575908070067934 -3.8149699645948116 0.25506580450372024
318 0.42248385609425615 1.1398597223774312 -0.40745110598019346
361 0.16826529845971042 -3.4819096678952426 3.074581853032601
362 0.22668932200622807 0.7572905717088197 4.409404734304524
363 0.21151687619527382 0.8066669247417756 0.17469009102316307
364 -2.2041650063426306 -2.006322344020864 -1.8490456679952165
365 -3.737534859681859 -1.1375245951465314 2.8413635982641146
367 3.8788584880606574 -0.32384343548749245 1.8838655375198694
366 2.3997627502356758 0.7201555734036418 1.9134521432435578
368 1.850036627009708 2.6102163532805096 1.139216746713972
369 -0.514402328692005 0.2591017180054848 -1.8369785754597623
370 0.5886286804206406 -2.8834449060123126 -0.2248925042363336
371 -1.8088414966047535 -1.647634998890416 -0.5335048964584653
372 3.004590444563817 0.7861305259511325 -2.160679978846515
373 0.10263068710804549 -2.637446012678324 1.595365715119935
375 -0.6571330758508175 5.105727039161597 1.1823540258227354
374 -2.3479192209404465 0.22631814101465583 -0.4981283987394552
376 7.739830557311766 -2.443974732161605 2.120763584994494
377 -0.6309801209421441 0.489168906845759 -0.04474783467174513
378 0.9303947391323636 -4.4035766233459475 2.7214188709191722
379 -0.3111762152175258 -1.510119656970835 -2.1152054351248273
380 -2.083132701323082 1.687112608814565 -3.0087370116142
381 0.7117787543741761 6.976100500947487 -1.7996580854514064
383 0.5814824224837343 -1.0294124421415323 1.8009283077296525
385 3.48231506232238 -0.2633519652676251 1.4807144493639863
382 3.1326179740369544 -0.5080887316093821 0.831633142814096
384 0.8577964220818438 0.7712236230316165 -3.0587707503686103
386 -0.7114387677317372 -2.0811989355799763 -2.4986145629025556
387 -1.3605441944853982 -0.1282013088242521 1.0299235062342815
388 -0.05114857544147042 -1.489106133676627 0.9282777645140575
389 -1.7213073297451922 -2.1330480901518762 1.893306783492461
391 -0.12735046464583763 -3.6423389387483462 -4.4384068132108005
390 0.5321352850361237 3.2959282745872005 3.8012963838192655
392 -0.3743830018122858 -3.430090065676998 -0.21060686071175239
393 2.551302236815192 -4.531956670670672 2.5610914395861006
394 -1.23024792360568 0.2894513033461682 -5.91539293917408
395 -1.4933636189136321 2.473153019160062 0.809954607370926
396 -0.4136804033485094 1.429209585349818 6.417008779106155
397 3.38827853710681 -1.0034624184433525 -4.686861267777258
399 -0.6722888539328092 1.0078526700439763 2.270844788609105
398 1.7212982702089221 2.24932904822261 3.402229188223682
400 -1.747789922820074 -0.8428799269892888 3.097418460538369
401 1.5246579966204 3.4814850550623953 1.2863804238070677
402 -2.0193277434504306 -1.5178033535177244 4.920401861175312
403 3.7259534552217235 0.6058481678264925 0.27651151995632356
441 -1.363492066821288 -0.9777967601996943 0.7637843079302676
404 2.38899071648635 -1.5377969817307753 -1.6379003369122
405 -0.1943901853977124 -0.9466414027509195 -0.6313104022651402
407 -0.4831239603133491 -0.8496645468281807 -0.8276536172172607
444 1.2513661813675652 -1.3327996612479558 -2.3866287925540335
445 -2.2766872404295353 -2.6652548660502844 3.291988706462157
406 -0.7005588405769473 3.0105905454929967 -2.5769012264569087
408 1.3459150626677086 -0.8089824588119076 -1.3388129649519014
409 -1.5794387494112738 0.11036738389892704 1.9137628091124832
449 1.0693734303565314 -3.0076417382786436 -2.359111187420296
448 2.214663816478529 2.676034051680846 -0.14078559673874208
410 0.40439161602369345 1.1232223478784116 0.4151796487285068
411 -1.2978201917264143 -1.1302819492083713 -1.251371115705178
412 -2.407151518904014 0.4469400400201658 -0.7747380023619079
452 2.3535621567125617 -2.198905726857074 2.483194907234563
413 -2.611092951992609 2.9050267403362655 -2.336377881224811
415 -1.0149454565721088 3.027362153316139 -2.522277585283431
453 -0.8370912669546968 -1.7537825797174813 0.4087975073384527
414 -4.9662116631087985 -2.186453466167755 -1.2962950039185341
416 1.1860219914220125 1.1394377659032375 -5.661241937096456
456 -2.238023886238352 -1.2822255265356304 -1.272063136971092
457 6.767058417852643 0.3897561099838912 -3.2083636047846325
417 -0.6132833649488151 -1.724833546632375 2.7606569663332894
418 -0.7630998566874325 -3.957806109168848 1.3885659663558207
419 1.298876137866269 -1.5376098698103464 3.1773155611896975
460 2.9568038829838543 4.803723770166993 -0.9799872473488451
461 0.20825975165021715 -3.7212879542144726 4.704105051024358
420 0.9785561517676814 -2.6659594426072 -0.41673467109980655
421 -1.0705682152194258 -4.5450171412653155 4.442851926476573
423 0.5139951129855375 -2.10813464697331 -4.041255917366936
464 -4.048846586781801 2.3071102585526706 -4.062033006437293
465 3.252062310053071 6.068915048775625 1.0610010910563086
422 0.10876614956876457 0.18921795734237454 3.4780697758585672
424 -1.7008799818380886 0.1512654234462418 -0.9952155843996076
425 -2.490707545562149 -2.1467183980224336 -5.221898377770639
426 -0.23079863847519025 1.9639816922128894 -0.6746313517823512
427 1.738156019681252 -1.889363577773652 2.6656197845059615
468 -1.2974626554007878 -0.8066098617885062 -2.8600894583269048
469 3.0297728601283387 3.4359498878041044 0.21523786461007446
428 0.46200689678121704 0.09013143971685693 2.4523032612351963
429 0.2769184791774133 -3.027380632048709 1.3604864229400415
431 -0.4900667099948837 0.4169693452640819 0.31177807532331464
472 2.0957993687328678 -0.04868164027990473 0.025647982644670112
430 0.8131003315833492 0.6071542824473107 2.7312595260223356
432 1.494614258129758 0.5686354378725144 0.8577006966844156
473 -1.791098464426866 -3.892603064673102 -1.8002612689518556
476 -2.0583449391121142 -2.9729063587674585 -1.7503370379376852
433 3.0514982864038296 -1.374828288580238 -2.0908091868820935
434 1.0185309995090928 0.47426993479096635 0.5154004402275841
435 -1.1819110897613254 1.5602844518450978 5.81671387247599
436 3.4402586235998025 2.6116259831298034 1.4326495883917587
477 -3.1306474511808347 0.6592060430171895 5.083542757270579
437 -3.219940915444429 -4.045292616289397 1.848687945927359
439 3.7386322236372194 -0.7993713212035337 1.5051554927723176
480 -1.4958651994692465 -1.7815501128765188 -0.4603559758794334
438 0.4262521741444589 -0.3587083473280787 4.82713481151826
440 -0.21798995833411147 -2.5050473731165805 -0.7474986878560246
481 3.14076725568799 1.732161512214719 1.8298771692595388
442 -0.6642106939884546 -3.7204169518521844 2.4326769671247654
443 1.225684216733495 2.5240274202332857 -2.158104648357
484 1.3312686776410652 -3.354899089858001 0.5723597081025221
485 -3.660017177931705 -1.9720057060215899 -0.09703494830929749
447 1.8110730671517283 -2.399785227573198 -2.3275888441821713
488 1.8651524826493022 -6.407947375641386 0.3982617756623557
489 -1.2288495529681691 1.8325043688148017 0.18768468447291847
446 3.3346026191194005 -1.384493526271869 -0.17426418061447854
450 -4.334454847461797 -3.1818500156672265 2.260679951265423
451 1.1431685687121687 0.9089271403901307 -0.34337108458571386
492 4.417375988707719 0.7440766246915448 1.2192917549737643
455 -0.48244275364165035 1.6306046339854767 -2.0132370193064038
493 1.7924423344193434 3.157168552540197 -1.2007360919950973
454 3.499614110217151 -1.942254042289477 3.6858356797101175
496 -1.7864653567132143 1.6366651644191739 -0.0863410024482735
458 0.02716767726216681 -0.5510445474767103 0.34221022493943937
459 -0.24435883608212405 -0.25655836447986863 0.859985090775418
497 1.2771742162015205 2.1303801135880276 -3.0566036934168097
463 -3.479879486320582 -1.0500942483270865 -0.5960852805697111
500 -3.2051890803735112 1.2236837178211333 -2.9937238009587586
501 3.784521743281226 -1.1306225169076416 -2.691877685577929
462 -0.9565292210064947 2.5437008019651413 -2.2744436852669634
504 -1.5847741224464773 3.189038088124948 0.6911946555451483
505 3.2194493522700767 -0.6473589484620327 -3.3666548859951093
466 -2.946650531063102 3.141638528247087 2.6247553133409047
467 -2.5003269855021766 -2.878480293401114 0.17033561098220304
471 -3.904310984803218 -0.9774722831590472 1.3412430023968016
508 2.422590131826405 1.010573858397916 -2.975757902368969
509 -1.9906552274205611 0.0075570451118996945 -1.6738735308896635
470 -5.448697166496583 -0.616130098396745 -1.5691172216223273
512 -0.1769423118685486 0.9952609756776415 -3.5281522189803636
513 2.4382293571745652 0.7146130684303265 4.3442262526165
516 -4.904943013640909 2.2322683766512594 1.375882442105938
474 -2.9381782058801975 -0.8372641883968216 0.8748137721264588
475 0.43683093494578695 2.981716605029909 -2.853535836104515
517 1.801335210134441 4.0042736085263915 2.3581285776496452
479 2.3803831855410142 -2.538850144830817 -4.864966097895326
520 0.36196642383162375 0.259059960485256 0.007764760862489417
478 -3.9667203603173125 -2.720526875889559 -1.2769676923832909
521 -0.08884072418872155 0.19421813819172418 -0.14318940009107559
522 -0.09269236009991244 2.1281770941818743 0.9993680040214772
523 0.48954985402137186 2.6258908864620403 1.3755703064311413
482 0.4500261661938726 -1.6672685217243963 1.8987479234795601
483 0.5310449336720503 -1.1180152299040456 2.023734115383422
524 2.3842105684245434 2.052901882170306 4.548525155883916
525 0.7792993867298934 5.697980666240386 0.01373975371204178
527 2.3401174480408766 -2.0773511121777735 -0.29511824261637165
487 -1.3017787797755853 2.0618908295407317 -1.092283817377813
526 3.2102082374825844 -3.4605777342113004 0.0989020807352076
528 0.5158787315127149 4.2652210619463515 0.630704172013506
529 -2.670391731338188 5.3105878770175075 0.9740833910181579
486 -2.0084738661593184 -0.8487439581812344 -2.1902118935825814
530 0.0055671580200509566 2.380127558613512 -1.5246529910235853
531 0.31824821165154044 0.5333876834494883 2.2370187159302946
532 -1.983101291747018 1.2704589591023636 -3.093235661728324
490 2.147128771311907 -2.922970035858799 -2.0246791221603546
491 1.5797497708057198 -1.98734680330626 0.09999028583755744
533 -0.6812157620637787 5.699487394489431 -1.5553163048695282
535 2.8759430671804234 3.0812449697493918 -1.451658221404947
495 -0.46010458871315885 -0.04626454047160041 3.1237830856482542
534 2.0508256104939777 1.7681537198378583 -0.8299682244959371
536 -6.201652310661779 -3.6927957930682016 -1.8436037412129023
494 1.4113203570591095 1.4664834279782364 0.15500674925742214
537 0.8244086789332624 -0.0734205446917084 1.3015701598773837
538 -0.5007463038997955 2.663359576915637 1.662369948032545
539 1.3031698171844621 0.1904821663402117 2.930548663497727
498 -2.9607329037394265 -0.567772915855231 -5.175738928903918
499 0.36875609669633175 -2.4297947554839463 -3.318576545059707
540 1.0901929010208011 1.3046143918210715 1.4026486909464073
541 0.5666343542385784 -0.4888429232846806 2.404349052267139
543 -0.49346794399465205 4.51918394078134 -0.9839137397762855
503 -4.125464024259823 0.3886294205159685 -1.3823364153699405
542 1.6847731628921738 -2.7147507589108373 1.3774554135608785
544 1.6462443241267921 0.9327088715372427 1.0639440408305212
502 -2.065319741592068 -1.3351500510317933 -0.7329966664792583
545 3.3676139289510316 1.8704231098362778 -1.3303787514423415
506 -2.516551758681151 -0.3543278671316551 0.5186119740263352
546 -2.906503173678097 -0.2974951466116947 -2.9485920158303047
507 1.080629079629879 -0.5127965003653981 -4.580017135300088
547 1.448941067810135 0.9512689680729917 -1.853820927616991
548 -0.9467920978610089 -2.363744372549833 0.6483484586107237
511 -0.08463975139611395 1.799138311171272 -1.2681806042301649
549 1.6567856772407878 -2.9407700840706563 1.7541021565108745
551 1.5958835242442708 -0.46729105466507526 2.3890389753725527
550 -2.6328839688868055 -1.7936620018221108 -2.3174111135790603
510 -1.8359233557606964 -2.590696219269769 0.14352216623299383
552 -1.1097329525008128 -0.18342894904168816 0.9952487337840689
514 -0.2045731873563174 -1.919467457230464 0.08203226019610739
515 -3.11204881510686 -0.8019221733584097 0.05544955365783776
553 -0.8098798468815647 -3.661800899888401 -3.487769157763044
554 -1.6495743415727893 1.3639237599446077 0.46678931773859733
555 -0.32395498686431967 -1.7964115326010766 -3.088312581494793
556 1.5764091999033032 1.1232016745731734 1.2453329303391165
519 1.6376833714047323 -1.6037150486725493 -0.043901100870867675
557 1.5399015777356262 -1.696044323577741 -0.6773494679088077
559 1.855358735114591 1.7650120144270973 3.41352356820467
518 1.069750354988618 5.209609254030412 -3.481109558959568
558 0.6484604785883473 -1.3697463006318258 1.4569000577785263
560 2.0111331057087205 1.0443146049723457 0.6886955236278799
561 3.7212182034462837 -0.8441223353595988 -0.25864696564963
562 -0.6223712044239619 -2.263944828486734 -0.08990504741121219
563 3.383137571170665 -1.081136580140738 -1.5869561024185732
564 2.02757759537209 -1.1257862536208096 -0.4670331798936741
565 3.506185982471808 0.8344798152271279 -0.4804097689418598
567 -0.4395693263614574 1.437084622345924 -1.0248913751157327
566 0.3623062144526221 -2.080599686847268 -1.1081080486680268
568 0.33126428399666097 -2.0278083141238596 1.7192581060970156
569 -2.33587990817795 -3.6788582087068327 -6.648467552283302
570 1.6350883996203371 1.183885837478289 -0.036758940672658696
571 -0.03921264365492196 -0.40154769823387637 4.791601670353643
572 0.6688603604252589 0.03850042785676543 0.14067600620053933
573 2.906076117853691 3.2535945755078943 4.2003571955962
575 1.2753603798371844 1.1015916478534717 -1.7138418550475976
574 0.14843560631226557 0.26416669645050145 -1.423836924965043
576 2.093932843372875 -0.45970763150528865 1.2360041898978857
577 -0.7938020368730606 2.261893446747053 0.1643597885474307
578 1.9920715801991227 -0.21992601283182434 -4.127204586564232
579 2.6072440277058306 -1.2167333840823087 -1.2559816549049874
580 -0.4595675873735393 1.992532588415995 -0.27077295205563134
581 -0.3510259787825478 -0.06216943139880475 -2.4639533065378836
583 -0.9531452729954806 1.2981876540524704 2.784514600988715
582 -0.31641687988983813 -4.696105708339114 1.0168005940497526
584 1.6546325576591148 5.3240237032934745 3.2605497891576247
585 -1.5165470762745057 0.4180044899034085 -1.7261557294392935
586 2.1435172309983876 0.5338791125450876 1.4282465655571122
587 -0.07861920665205568 0.14177488662502968 -0.21360232509536123
588 -1.8226137929670199 -4.05322850145165 -1.8203166320678612
589 2.702367291555295 3.9698565752800485 1.6368813501184545
591 -0.5622523316645368 1.9268467788713945 -2.6545773797388614
590 1.4872817327250918 1.0827633788421238 0.10102496039539098
592 -3.2223337070299634 1.5444721716464394 4.796559060346668
593 3.930924512196765 1.9450948550554163 -2.5399456681997594
594 0.7247052733107058 3.055185604215867 -2.9347470897739494
595 -2.958515834935615 -0.009773876016711992 -3.2147022815785395
596 -2.4505824261022298 -0.05251256340383887 0.7729113798048148
597 1.0341660159023367 -1.1852876764919051 -0.5211716783218955
599 1.3482438546761721 -0.36905665003972143 3.681048183395581
598 -4.556813326900285 0.3374001901472516 0.24921215715905662
600 -1.9362327203793417 2.308758844204681 0.6004013072446178
641 3.7181847469034155 4.109696313380441 -4.619271422921192
601 3.3557851701706056 1.5868141585762123 2.167350808859227
602 1.5323911642343302 -1.0885139648898778 1.3493893377946604
603 3.3822762445698524 0.21479384619129663 -3.677628535905821
644 1.8550342937798698 5.045629916486682 -0.08638466751151452
645 1.2127879175014586 -2.925729722017508 -0.6518580250860716
604 -1.4256229733916232 -3.3109825462808766 -2.8234829194594795
605 -1.7017268010868942 -1.5998809836834353 6.86709018211711
607 0.5636479808885987 -3.142288802684727 -2.959418688588666
648 3.7038234672172456 -1.3082695384132215 -0.6018448783690697
649 -0.03978688590082601 -2.457395033195521 -2.481304642333441
606 -0.26687577995474776 2.718654728518269 1.6278420535547649
608 0.11045832714621397 -0.30696094189294026 -2.816378162984702
609 -1.7688140656645635 -0.7585615556863461 1.1041084546907725
652 0.02132808019794998 0.5020824059502199 1.7164685852340889
610 0.0491015509168001 0.805222318776081 -0.6532763577818889
611 -0.45086984241457256 2.3218374299296323 2.65403081981825
612 -0.7997756979370483 2.5240748625851412 -2.547490059695693
653 0.49863515223641364 -1.0421232174240065 -0.12974676055095447
613 -2.991125449613458 -2.5156718451295537 -1.396704461864485
615 -1.49675096606242 0.6206280605177673 4.349493182645351
656 3.222434298006706 1.3502109633871753 2.354383704305255
614 0.7712274528121937 1.849538380681376 -0.5107674977928858
616 -0.4895584181434634 -4.904232302764642 1.955096631633547
657 -4.108425680500921 2.5729810739557943 -3.5741193779937155
617 -0.8631875407946324 4.041675230347469 -0.4873666202067632
618 -1.538901625408913 -0.6508364829084005 4.127031216213448
619 -0.11988723257410282 -0.5662470371864131 -1.007257438546168
660 -4.006563528095288 2.4094855858193776 -1.8863615054581178
661 -5.152389687484628 -0.4881941370685878 1.2480033291148611
620 -0.8907318724685578 -2.9280907773870544 -1.148131539753172
621 -0.2754535505906636 -2.5019585735598633 -0.9189189125299053
623 -0.12695708925203153 0.32465012765947193 -2.0698187901454537
664 -5.186138084411805 -1.129589425536036 1.9714545359662765
665 0.5283083743065632 -3.3296230557668425 2.4104888724971616
622 -1.2360591663620353 -3.2762303200510137 -1.5009543446355302
624 4.321186569331041 5.3409335318581705 2.569865074645898
625 3.0325407212336715 -1.9028577030414362 -4.243788698400929
626 -1.1400913341233456 0.8720042018442725 1.8567744461213873
627 -0.5303474342094976 0.9397700997773157 0.7594175433536253
668 -3.607444736656205 -1.6346212816186412 0.18451731778319916
669 -1.092702982766172 1.430917696625205 4.229996497294653
628 -1.120306316759441 -3.945773444480401 -0.6281542192777103
629 5.626632092395854 -1.0766281526820447 -3.257996210756501
631 0.21399723535211046 0.3092541414994874 -0.44842590559645373
672 3.7162957081127006 -1.0629987933471254 -0.3006535802466903
630 0.14470728722934148 1.1740942782999175 -3.797001054738071
632 -1.0984155115575855 0.5034940021147439 -0.241908074121395
673 2.3613032735966604 -1.6199178980840025 -1.5571583345196407
676 2.6664006065374926 -5.351368280873236 -1.5586320013221269
633 0.5214036304115839 -2.373226491042553 0.5856487275461336
634 -1.2968696011680352 0.280617536856686 5.121985612917468
635 0.7352919248903478 -4.747099780717465 -1.430160548937905
636 1.3166586904981505 0.9443048087712864 -2.438225646945307
677 2.852179837876715 -1.0111683166573429 -0.030857707430596557
637 -0.9820057692688964 3.0466610470932665 -0.5506669137383057
639 4.348387503338641 2.7979494610672915 -0.947609454819918
680 -1.1258727291166852 -2.462672494773519 -0.5045478253946309
638 -1.6115149187071607 -0.02940679048492593 2.588388024601854
640 -2.3795565620374175 0.6761470265751325 -2.9103784642609694
681 0.6076993697821973 -2.129579381918143 -0.5187291426477143
642 -3.3523800143552083 -0.7618710831230838 -2.0720741466644386
643 4.296376924891402 1.5651829069533416 0.08576737605138564
684 -0.7611525374895356 -0.6580732302153391 -1.2167386968556424
685 0.270819171718843 0.545581640166101 -3.9005006270214193
647 -2.5947696505628963 1.3348906749282048 -2.398395518764339
688 -0.7897230379801813 4.883138266706026 1.0930377301190988
689 -2.943369927020234 -2.3304357806600597 0.10829370245031468
646 1.3223104773447043 0.4181082663894882 3.8956170556074103
692 -1.9380171737553953 -1.5495158229849266 2.038879953239414
650 -2.2522621775560228 -1.0580860905119556 -3.7982429886339584
651 -0.8300144784936141 -0.9806105098159205 -1.6979625464441686
693 4.554875116511838 -0.05751575701172858 1.5067710825744012
655 3.031288482614391 -0.03259720673982463 1.321338210877946
696 2.595190790987709 2.8683066844493457 -3.7791854013221835
654 1.7455121129223816 2.3757303563295107 -2.041900642088991
697 -0.5905315480935669 -0.2909962749444064 -1.123328021132699
658 6.180763667857492 -1.6558469709660393 4.543122670893476
659 -4.037113305458145 1.5487650822310726 -0.8533528951288564
700 -3.0062802189998052 5.370552833860783 1.298924560096364
701 -0.017908797011535086 -0.11396288722264018 -0.7850948690700191
663 -1.669976356535605 0.04009801768059341 -1.4549786419544728
704 1.4133473909992944 -4.12802231694855 -0.18566940376298943
662 2.974091540304112 0.9971132020399861 3.6671716114582407
705 -2.194531105018627 -0.41156449920577576 1.0520594393564053
666 -1.2795609866363418 0.7182479759014203 2.469432880720213
667 -3.0952984387264797 5.008523394710288 -3.575393561097968
671 -1.8161625966006003 0.9554024107923148 -0.39781824493114515
708 0.29025825261939275 0.6141721996768932 -0.1545131967765599
709 0.5346171510051183 -0.7393063779650624 -3.719223552923192
670 -0.7539570101515315 -3.733049285004 -5.151966486417889
712 -0.3030092930767707 1.2616308926293365 3.4428263452012198
674 1.7885935032741158 -4.297449710966796 -0.17781012038880398
675 -0.37210838861783074 3.0209604734084983 -2.1385016361846145
713 -0.09666039817603349 1.5384602843607345 -1.179543102561972
716 -3.3361097229908867 0.58051981960678 2.1208399568712464
679 -1.0289331130288821 -2.3487953854244736 -0.3941634092944284
717 0.3204718588331706 -2.35630234313812 -2.2469932757829416
678 1.926437679220511 -5.226669455172625 1.346171057936847
720 2.034639366154071 -4.9270938858965465 -3.3554434792856176
682 -0.3999583433290088 -1.2484684964000983 -1.7839037854833208
683 2.849315320265919 -0.12961136366374934 -3.8086590763860935
721 -1.533076583770011 0.41491885773781517 6.713689475616703
722 -2.8699325295640303 0.7961897412672594 -0.11922784303970352
723 0.1010040275328681 -2.6482471745782705 3.240334822159878
687 -4.15504860004606 2.7532944088304703 -0.7333558760389073
724 1.3054016711455676 1.9542761883727862 -3.1552448711014893
725 0.997684541753711 1.027715799600894 -0.25052372816400864
727 -3.284019372808911 -0.5108820235457187 2.2600302647398114
686 -4.320889380968692 -3.0569655961216697 -0.01625378509505761
726 0.565176188353229 -4.136083900613865 -3.4567944230811767
728 1.7299541491213146 -0.728926716653031 0.9832183361525668
729 1.1425150547074374 2.048301486239108 1.2292783313823463
690 1.0474545318619237 1.3923431072006436 -0.1216861115193303
691 -0.19987892992820017 0.00445541419116089 4.500876386521221
730 -2.775596642196233 -1.0902858732969467 -0.2537701718186703
731 1.1143445264568963 -0.914819697186015 -0.6523943745103004
732 -0.5614460603482772 -3.1311437043175734 -1.7682730774686348
695 -2.049010187740498 1.485418718010847 0.2608329215714974
733 -4.037128547730212 -1.4129824382891523 1.243506123581106
735 3.9824906909246796 2.3753388666209467 -0.027799922441539632
694 -0.27766162835115754 1.6539055702752192 0.15804036895483015
734 -1.5074091494419612 -1.1509869033971318 -4.8362908601707275
736 -1.916303301765852 -0.1732157073296929 1.6760934001721826
698 0.43050305558502794 0.04928479122467861 -0.28033592939024815
699 -2.1763437530484877 1.680514183200436 -2.598043628952177
737 0.0820367825144715 -0.722306590995609 -2.528451997806662
738 -0.17972523988500547 -2.243907349241634 -1.0393121200382762
739 -4.280861352708577 3.214347982282807 1.9340076479899468
703 -3.9891305195386284 2.7407293983476593 2.6524661350851537
740 0.589854876292124 0.032620025582544405 8.210022471080773
741 -1.3913288581568242 1.9227276621637077 -0.6475520382596076
743 0.8239061004855691 -1.122141882459614 -4.563109593951551
702 2.9667644586128814 2.572559036343581 -0.9068054978449377
742 -0.00034336029702330744 -0.5965127925182491 0.15909851519207294
744 2.2922276869131797 -1.3289934764040454 -0.08197168764146459
745 -1.9980096489571946 2.404157323182311 -3.5719175311010627
706 -0.8262427185296283 -0.47398342835156804 -2.8074164885048964
707 -0.10127535700683786 -1.2000588064405213 2.594184307504833
746 2.633836015743546 -3.255216124213308 -2.2748795841840037
747 0.8752212400861415 -4.515673392624575 -2.7264798323924917
711 -0.9358687024922263 3.0394716420827304 1.1879502004281202
748 1.7062656740160078 0.3929015856192923 2.2303558927797833
749 0.40840611873147464 4.716089578026005 3.0857642618230656
751 1.0224930246798423 5.005679452027757 1.089732573753442
710 -0.9588775683435896 0.1227480875023224 -4.096646872509586
750 5.141782657962872 -0.5686843604318909 1.3239607185512514
752 -2.204027158860404 1.5233761003320294 -1.466439574208581
714 -2.227251294258146 2.139388273706498 -1.7698480040068154
715 2.754648474292975 -3.583386598470416 5.5131725876001525
753 0.21869508352484904 -4.31628470528507 -2.995681058420611
754 0.7793966172111652 -2.629850653011576 0.24864234981856279
755 -3.723148770159933 -0.7623808858549729 -0.9143397166828777
756 -1.4095548263253597 -3.04740962172201 2.619245719014992
719 0.17805434461201927 -2.3232887805985065 4.989249561650479
757 -4.985204445062513 -2.1551686232257747 0.08388459086994172
759 -3.515745149023409 -1.379742627734507 4.309541481828314
718 3.5533112502670248 2.327729172843861 -2.994977673107768
758 -0.9257989315193719 0.6168950305578219 1.316669177629364
760 3.336915374006179 0.17691690979286145 -3.70375796126252
761 1.490742483943956 -0.6657345096549511 2.0616209428113863
762 -2.24861185449248 -1.3646724689261718 -1.2329230096023973
763 -0.8411237515147609 0.09424064678598004 -1.0399271522296767
764 -1.6390961895638292 -2.9457558446072496 -0.9097497743087071
765 3.1369314644391952 -4.26318011991929 -0.13196731932000189
767 3.184020469520057 2.937132009010427 -0.9647812921118167
769 1.3104217243248646 -3.42382953698862 1.825847170586541
766 3.4157952133067018 -1.5972569291508345 0.20737800453980484
768 -0.547851437947046 -1.584549414069999 0.25420059336686757
770 -2.1234526024557288 2.133623466759611 3.0407962652109988
771 2.4229186587206097 3.223337478150926 -0.5581203393868087
772 -3.1744913456732657 5.397159720849646 -0.8273117881236565
773 2.443193293775739 -0.4101982652052524 -1.666483429843396
775 4.627731144098989 -3.4369155043744413 -2.316984948524403
774 -1.952008878910054 0.9880202310609383 -3.432332832799439
776 -0.591976765297961 4.313817418142754 2.053506522750404
777 2.753175865388985 -0.4294017994747832 1.7175492655007676
778 -1.5684343703189696 1.8479451517686778 0.5236834078186641
779 -1.3431668091124052 -3.966219008995412 -4.585424325324159
780 2.4171482658605727 -3.5527953383606916 3.41353089764765
781 5.227949151237425 -2.4644139189479786 -1.4372087686088217
783 -2.4408519191905196 -0.20465263752697954 -0.32956642972268313
782 1.0628078810799342 -2.8655334651035327 -2.6459525519295455
784 -0.397250784789161 -0.2165609399813212 -2.370577508511497
785 0.27112211116150986 -1.1242421111937004 -0.2870814073506871
786 -4.5040270642575315 -2.4183283282250434 0.9794104750723469
787 -0.8716020457700571 -0.43437002435253674 0.5272483622176946
788 -1.0364951345015523 -1.4661445461495581 0.8574649347256265
789 0.9815543879258346 -4.688015623607753 -3.9885267666181434
791 -4.605207192726287 1.7786991076059666 -0.42569119369342184
790 -0.4295128253081329 -0.4405479179510423 3.612186192082256
792 1.16149948679894 0.26174117551021114 -2.856183872708012
793 0.29491572072456984 3.981115917147075 0.587558241449379
794 4.480148144614646 -1.7248962792328142 2.565544727230892
795 1.1550598968384096 -1.6001762168435496 0.8851508175944967
796 -1.0776746084671394 -0.9866222347823219 1.810948650899273
797 2.129919234698502 -1.159101469861162 0.601519907122991
799 -3.5846631373124884 -2.2891133361074516 -1.260592064062151
798 0.09047269800283504 0.29124809255362055 0.8457203311206037
800 0.023022203416102525 3.0451660468391264 1.8493151333448092
841 -1.6187250201014411 -0.9882815770830803 -1.2244038342738464
801 -2.864581667658347 2.3092493326238115 -4.30614533062616
802 0.5145624465288567 -4.926612768320795 3.3446175344317446
845 -0.02641263698654582 -1.5603852307688169 2.682268804948903
805 6.017108052593657 1.8857154036960708 0.5801656581836654
849 -0.4501791905206486 3.6684045496186495 -2.165364740325945
806 1.4908913019736512 -1.1181940143226756 -0.658170528279942
809 -0.24547204169429127 -3.503701283641939 -3.221185034779817
810 -1.6683103598130333 -4.68138289561408 2.677045690544981
853 -6.888572158706242 1.4260861224453103 -0.017017560963296596
813 -0.3483022954787871 -0.7580941484181647 -0.738821051354411
814 2.9455917755406027 -2.7382522117139887 -0.929469361766159
857 0.5735407252400209 0.8345035938297236 -1.6823886846750586
817 1.1988591946656282 -0.26230510477746255 0.057826097963373894
818 1.143287830395061 -0.12471366295291514 0.16140442109191377
861 3.983942747703407 -0.2585784287099443 1.4279793569668469
821 -2.720885463289753 -0.032105278270866164 -1.3805944914144477
822 3.285707276402876 -1.7433687436653653 3.184163894998073
825 0.3999883428949875 2.047621054065348 0.5035252152970768
865 -2.007309210807497 3.0224638325411584 -1.2648979192441288
826 -0.7895373904302944 2.5643192898014053 -0.6385810897062623
829 2.248496840067641 -0.6379769769564959 -1.977267928696035
869 0.20523385270058253 -1.428360288664187 2.95217808227679
830 1.314056646773871 1.5617813145692023 0.9349621869401517
833 1.6604907457935636 1.6798683493239392 2.2224684321385726
834 -1.2122994838968522 2.013590578220083 0.25368268759617696
873 0.7506370269595753 -2.7700853968145256 2.4096960471304225
837 3.8979439798523843 1.8869269059406222 2.2158965374439386
877 -1.4319782321440122 -0.7205736478985565 2.7782633850602623
838 -0.2734668211141929 1.005305165107467 -2.299703761063137
842 1.620710225172771 -0.8701649201564436 2.242605464199632
881 -0.337710622139976 3.0359185333018557 1.370639226566313
885 -3.526666312536278 -5.022246979738156 -0.2736575511762239
846 -0.8856034194578905 -3.2124302136485743 1.617810387591944
889 2.7437423908463523 -0.7875985382349718 0.6778690854074663
850 -0.6611341926886888 0.26144104339331564 -1.9444009205106634
893 3.921697430723559 -0.14923487525205703 3.8285419337119238
854 2.8583160564321024 7.481341464306068 2.7500883709063393
897 3.540214332674481 2.7496526498747653 -0.6871877786009039
858 -1.889914501578534 -3.793053466562839 0.05546916019360998
901 -0.15854663544563558 -1.5264804789295128 0.4634080306343324
905 0.9325160877180415 -0.46311871602097815 4.178043777965232
862 1.7957981263562792 -0.7648902006654676 -3.8898383103871255
866 -2.9824074650475723 -1.0764726949022094 0.33374144056520383
909 3.491415426275043 -2.4582107200427794 0.1916211690902418
870 -0.048994409299202304 -2.3908500867079807 0.4493777513674689
913 5.538594543568236 -1.000983233261164 0.6298224343633232
874 -3.554264129223004 -1.3569232758150795 1.4546196396462703
917 0.6801493543482621 3.536586783346787 0.6002481289615452
878 1.402961487586494 -1.295337286194333 -1.0143300177303893
921 -4.42106396705564 2.428284427020491 2.7158263936331077
922 0.7533193941958479 -0.0872848795359255 1.39768263929979
882 -0.7255097913591008 0.5258663044499565 1.613091998799588
925 4.54150451932255 -1.2666252748893907 -0.5375330535321079
926 1.9207589780457492 1.22854391392663 -4.009966482442899
929 -1.0858728455572972 -2.354061618436152 0.6809756869563647
886 3.2791498424295242 0.19980263843414767 0.13893861506120558
930 1.0348194694339052 1.8207278032289538 -1.3952703937283377
890 -1.131988996878615 -2.3565914872880844 -4.185011693651908
933 -1.6847266264356324 -2.329303352824664 -0.40147904010674784
934 -1.496176540857841 -0.09179091505574523 -1.0761609808831336
894 -1.7733206682716651 1.6697264474067974 2.232309166283535
898 -0.2259050543149753 3.1191291568251196 2.409289081531952
937 -2.7190644341064134 -0.5512918748316529 1.814015664415254
938 0.8208902329371522 -0.9965946515845773 -0.9930920040841185
941 1.2346861338068809 1.370155735796508 3.1245437485634384
902 3.411474083117034 0.9820441602616364 -2.8497639093179257
942 0.08997538520211457 -1.9703659170295342 -2.080799018739069
945 -0.49347912725276294 -0.8420083918972082 -0.6158910677146611
906 3.559236643864917 -0.6262630427231206 -0.8419592956269478
946 -1.5659379095561963 -2.3621593310530873 -1.0499800185608565
949 0.5634914412708978 1.1947299391494124 -0.5308097261439065
910 0.9729563616015996 4.44637459672795 -1.137384028986873
950 0.15011088332621514 -3.7590876576110293 -0.8097360836343037
914 -0.7700661104348133 4.120215968023033 4.326698695611065
953 0.0007772076698218597 -2.2222369136971847 -0.6254336627888779
954 0.09985122410620327 0.01527469520058292 3.479536971151779
957 0.03802750530787734 2.852271830772502 2.1391216745628103
918 -1.0902673824590672 2.851609700951974 3.211981128439147
958 1.4969859398685676 2.4127518654308515 0.532361237310844
961 0.8148903847938508 1.4744834878454938 0.1707251393177313
962 -3.9173723778393317 -3.456873747654691 -2.227490957654497
965 2.3777017610456537 0.9439584526238296 -2.0394836371325655
966 -0.19193209877108447 2.082799208800189 -2.4087506125242997
969 -0.14589861320764683 -1.6460000272194337 -1.8472210580803947
970 -1.834825045710644 -1.0041253868774893 -0.8156364865361201
973 0.43805753732249597 -0.6597802253394979 -3.2316789580696996
974 5.0524584213867545 4.287102025640492 -2.662787462830813
977 2.664732309989348 -1.457087270693722 3.9248516182492783
978 -2.473913123608033 3.793824129881714 3.799753376549773
981 1.9089800957672516 2.3269919161277626 1.2327560354827918
982 2.8383735337552083 -1.3495007456077734 0.019505598216400296
985 0.46971492951478333 1.3305922101343552 -1.1026602589566044
986 -2.068150197334502 0.7239638151320708 -0.19899002406207839
989 0.6324573176635723 -0.9422858230782859 -2.4767823749009747
990 4.152531118742647 0.2428999532210645 3.1336890267220636
993 0.16755490884243088 -0.6006017409484985 -1.2171786003035308
994 0.2215166926510811 0.6923649620017904 -0.7458726720197637
997 0.9329418062447341 -0.6104542042996907 -3.8254321420448267
998 2.3105035862219423 -0.40924868574116813 -0.8584493027996184
1041 -2.2450953439805876 0.7358414215154332 -2.9998569098433876
1001 0.9330029529413153 -1.4017745121982887 -0.21144373880063236
1002 2.266902426898659 0.7645716476838645 0.026568707697927095
1045 -1.1843165548402719 -3.5913551548882303 -1.4997522606944824
1005 -0.7281467598702788 2.2218401577090923 2.2670975214400566
1049 -2.606131012512689 3.0386225148274217 2.438652883588264
1006 1.8113421605144664 -0.22369317032169694 -0.5180721138573919
1009 1.2680859699106182 3.614630017851181 -3.336810120414152
1010 -1.8079767893198935 1.569954632933644 3.2131265778133233
1053 0.026467013966234364 -0.748577073242548 -3.462774015933882
1013 -0.5034528017495483 1.8583444558986266 -0.14485936083924575
1014 0.3560311370979418 -4.31920698558458 -1.7156544222204564
1057 1.08745357252132 2.4636848190212106 -1.1154751000434155
1017 -2.0557578417931603 0.21760323746643812 1.808660323405433
1018 -1.1721158915134162 2.080959609995771 2.4496590881081404
1061 1.7890678585723832 -4.751361787832672 2.3707331902574342
1021 1.6922125166462463 -1.0512967545854832 -0.6429683762525277
1025 -0.47932557686315264 0.29843882059754623 -2.261277791848716
1065 -3.0063900649203372 -0.17297858734201943 -3.8596338848287393
1022 0.8680509430939195 1.8910495475883247 -1.1189318310812504
1026 -0.7681957534573587 -0.6979562481849867 0.9493319453854777
1029 6.986655208405686 1.0733579200455863 -1.5471466033398897
1069 1.7054926147040401 2.188359571705813 0.7405399117296101
1030 2.3727900112914897 0.13981465343489144 2.2312451924646775
1033 2.2323211402924747 -4.268479419949373 -3.7414744619634024
1034 -0.4045395978190329 -3.057119071608722 4.144140981437645
1073 0.06565852591357749 -2.383787639541363 0.5577250791977388
1037 -1.0037846955927798 2.7054197927967514 3.2961533385348236
1077 0.4283256610417654 -0.6304932513301675 -1.795550646335704
1038 -0.4344316708119004 -0.2921036768710712 1.6636760148573717
1042 -0.9900245394838358 -0.04038546630538622 3.255441699718063
1081 -1.1716306666841114 -0.8970933911813002 0.7680824982870588
1085 0.9175362465294148 0.8886177059456049 -1.9474991815776639
1046 3.34662908341541 2.1883217404977313 1.2995859334305138
1089 -1.0551087351320116 -3.971241911506177 -0.8090547939074083
1050 0.8579603595427371 -1.7027953587049405 -4.7100359270588
1093 -2.138982080689642 0.007529059031948484 -1.9959831781317985
1054 -0.001955984210046341 -1.7512052316918219 3.1180103153015595
1058 -2.729986765976043 2.1262279309944168 -1.6210296663824373
1097 -2.6532460391327923 -0.05994389922008773 -0.2855109384966458
1101 0.8985690654205363 -2.9864261371461303 -0.12692852026856233
1062 1.3886883356020938 -0.20094054566474487 2.251379946288423
1105 3.42945993178322 -2.5760372867699823 0.8998858787236723
1066 -3.666441559870783 1.0257275879645253 1.4563817063065263
1109 -0.3344605463113713 1.3421072530501355 3.398233049146064
1070 -2.3368730986558397 0.9353541373906215 -0.021472351599388557
1074 -5.835050173646895 -1.378090395675078 5.728578803622712
1113 1.7128087238038892 1.077200678682032 -0.3300046441784531
1117 -4.271778294302368 0.44028529042879444 1.2794564666944501
1078 2.394515944684281 -4.336895305588099 -2.303999657907419
1082 0.7635078551242833 -1.10630530804157 2.0718247304374384
1121 1.0402549835359185 0.1127853166889532 0.18205612071238053
1122 0.6477788398492983 1.525940301716547 -4.696066655745822
1125 1.3656160994787512 -1.4624863357671998 -4.106320714335141
1086 -0.71694913636603 3.3383292935231585 0.20114301417057487
1126 -1.0734497780665964 0.20984883270410712 0.20186960608277701
1129 0.08982474706640925 0.5512573552929765 2.760697324164634
1090 -2.8367735370363136 1.1300403919015405 -1.2754100038645613
1130 0.5903321292935227 -1.6360527699186933 0.8059066404092801
1133 0.08284951421299319 3.5815048879210494 1.94136755755432
1094 -2.698453660242246 -1.219394994007041 -0.006622001600026444
1134 -5.613333384118795 -2.258536985719609 4.365589583091674
1098 2.3417831400524323 1.6315513455174615 -1.0209599336402742
1137 -0.6928781302448557 -0.15374585714420436 1.5230727210740007
1138 1.0742637984939738 0.4862503103823388 5.896294215275208
1141 -0.006670713727216722 -0.700498369857526 0.21093288773591695
1102 0.15278510774533516 -3.9161915705506654 4.082566045218462
1142 0.7002454872763576 -0.9242088144273638 -1.6210911724306356
1145 -1.9613819800934318 1.4054557001051038 -4.074164616223253
1106 -0.22138398576002907 -0.19103778522523246 -1.566201805311723
1146 -0.3116630382602113 -3.1801630940640813 0.36059419251975
1149 0.9492933335006308 3.688972033181152 3.520737635309924
1110 -0.03133455747360703 -0.22740113954772437 -2.459359454736142
1150 -1.5790042032058476 -3.8458216566133614 -1.3774919869544606
1153 1.2008019587447798 -0.31026518067167236 -2.463613362392438
1154 2.1527210937247294 -1.8623336230486616 2.5437256603016247
1114 -0.33935400015731826 1.8479246471562287 -1.112983881301466
1157 0.4193273868231003 -3.4917858152037464 2.3374801429494396
1158 -7.594817839176076 -1.469128691466871 -3.602279863084584
1118 -2.7133176547997104 1.509872260317103 -1.448667243500805
1161 3.8752068955022105 1.6417772049921038 -2.4735746640297513
1162 0.8123222999577837 -1.3034336229397887 1.3213401202901245
1165 -0.004032404126067998 0.40535969541477834 2.9156573313092222
1166 -5.207353200437329 -2.0806181201635097 -2.7977803261101806
1169 -1.371231012418106 -1.1875741691089419 -0.49493006630532954
1170 4.806501360278923 -3.4733604011291774 -0.15145946107068958
1173 1.4244908957832443 1.3694507807383656 2.794763342954569
1174 -2.0024199446436604 1.0275050560211694 3.974675524294628
1177 1.97244931695025 2.5495294908714903 0.1286235145591072
1178 -1.2896342417200424 0.03461191729155137 -0.7240267656322243
1181 -1.4342486223068251 -5.156182746753545 1.7566747919661228
1182 -3.2206393376120395 1.5528848913040565 -3.101315322172743
1185 0.4416488130901835 -1.8898876981982262 0.8341260719508241
1186 0.04711697672378012 -0.03271990361572303 1.9137651095914872
1189 -0.034545920854473076 3.3330400496241457 2.0029245827993645
1190 1.6037220935711491 1.0816860017320058 -1.2476348413607368
1193 -1.3438352793182806 5.26299554742251 -1.4315380308669183
1194 -2.4438351317901894 -3.235686578796257 1.4844260437090602
1197 2.537196428208215 2.8649454023573133 -2.845943327142833
1198 0.29740490939813513 -5.779581201562708 4.563488124317459
1201 0.11871640850682454 -0.6338650913289603 0.05097297679888878
1202 -3.6547312343693386 0.0626746848921688 -3.1794354812066183
1241 2.957943743955733 3.9788896250351846 3.6535591174626196
803 -0.13407755349529096 -1.6100920771396101 1.795428648724059
1205 -1.0028226852501743 -1.9350010075965915 -0.05124873751679814
844 6.065866807213336 1.8100130538643286 3.0839511270201445
1245 2.5420107467274957 1.5990990059741568 -1.1658616422918158
804 0.4148791989786721 -7.2947135495795905 2.3519935667672573
807 -0.6795085141052488 4.678054970432648 2.397312288504337
1206 0.7624383397702889 0.43274873904981787 5.512159537647015
1209 -1.6669600821474815 0.5431225224688205 -3.3259677382721167
848 -2.641783213879386 2.0187674921489407 -7.232602116093333
808 -3.025909500869638 2.545453602991992 -0.6651552735256376
1249 -0.729555739528383 -0.492420966200377 3.2441757201009422
1210 1.5539359422659396 -1.6072141231439834 -0.2502029938961834
852 0.8692047249344446 1.1979049967630215 2.0979590514286346
811 -0.07278040399607229 -1.4887837621059439 1.1720127087006835
812 0.5514097355554499 3.1948000923473763 0.7000144763658267
1213 4.630984854528043 0.5070605400482703 -3.2037214524123456
815 -3.2008090223817978 -0.8660300418163177 1.3150123281982782
1253 0.9948701300644398 -3.725888892894948 -2.419504948803646
1214 2.3709346031276106 -1.348306336076407 1.8300359451239587
856 0.6203693350191664 -0.6346843881557355 2.266141063574356
816 0.3243767100006193 0.47286112379764017 -1.508594565157591
1217 1.3718781192498382 0.5207862717553453 -4.831138526670207
1218 -2.427198286726177 2.078072385526685 0.8295036036997343
819 -0.2147611719541136 -0.6835931817376384 -1.6655248728319336
1257 -3.6701636225664336 0.34410927201439856 -2.526300344836877
860 -2.9623424455363234 3.9184380036428954 5.881180566218729
1221 0.893948620998202 3.579007853851436 2.0406802760498675
820 -0.8026806293775153 -1.6173543228779412 -3.1597241221775936
1261 1.627005910955317 0.54627822831396 3.108390915269389
823 -2.03596353714985 0.0311261191153145 0.5274693804270348
864 6.598600009061579 -0.318667568909475 -2.044241304390081
1222 -3.7144119423327626 3.651056959230847 -1.5792124162908003
1225 -2.69094973635076 -0.43695406228751005 1.1498136418826326
824 -1.4426532749807441 1.0334451568966387 3.294381895765428
1265 -1.583105419845549 -1.822515161508919 -1.3031057283858773
1226 1.700637451291981 -2.002136767297865 0.9457438382183522
827 -3.191977359572739 -1.4042376672679295 3.556249043785328
1229 -5.011083470800351 3.2022524230816547 -4.6386993538384695
828 2.9475734474491766 -0.06872960235860619 -0.1549535883464838
1269 -2.911639794049764 0.5640473634034571 -2.85887225339911
831 0.2167183825786716 -1.6769792905012662 0.5249232401056368
868 -4.830873761890024 0.6377332377968805 1.2232299357968308
1230 1.8572365036680352 0.9275322823054841 -4.647386518939714
832 -0.7243823439379027 4.548844301271906 0.5279778476112752
872 -0.8662759501443716 3.9411822678129615 0.16180767874993668
835 -0.42212295018381724 -4.184383274686333 -2.4064687439323134
836 -0.5242603772268984 2.9401971984908912 0.48214667245166126
1233 -2.351794168969519 0.8377844749972614 1.3149590843345458
1234 -1.8126229854667788 0.7437696972940453 0.4862109081242666
1273 -0.5321868848345329 -0.017310080751574728 -1.2225607791513273
876 -2.920694277505803 -2.2587340705617533 -3.229120970653453
839 -5.84410068517113 -3.987170609960715 -1.0500253417654832
1237 -1.1984677333904108 0.8077823897450697 -0.2642363511503492
1277 -1.90982806314724 0.4819549346625998 1.2712768079030203
840 1.0165154971637562 -1.1795480615945406 2.0602529610895624
1238 -2.137911470846712 -1.5858581806719816 -2.4317138511127343
880 0.393992401798512 4.445768509076545 1.7894117432462846
1281 -0.18915970341492339 0.11785384465218429 2.3763493714282573
843 -2.6262171523296285 -0.3970563530242715 1.3262506291036933
1242 3.289674341056634 -3.3028050080590416 -3.3417444460995473
1285 0.7898840761171856 -1.6027325873913032 0.2882661038133683
847 -0.5280136457005744 1.2841155362577639 -0.7968643606872999
884 2.6046777976593076 -2.886926170900631 -4.736539369985688
1289 6.549597779469748 2.644791608298061 2.5017986782214914
1246 1.5130541289273274 0.539289909588216 0.5107605142157163
888 2.3177492270072366 -2.2493694782569587 2.8880089154316897
851 3.86066627001739 0.006065582736888801 -0.16010348456854923
1250 1.546416152713918 -4.769785961790731 0.18331382651789863
892 -1.9502337684786053 2.9027765917721564 -0.46633485796961327
1293 1.7833697411163745 -0.35709685346260833 -1.8234830110442033
855 0.09714014217797799 1.4770205572707258 1.2780181935976802
1254 0.7755708560040915 -0.018792469773339978 0.827281357265502
896 3.314533168025199 -1.2718104173292146 -1.9115193331415221
1297 0.10887341653891433 -1.7511174316708344 0.5004777377428519
859 -0.6728902681661846 0.14064363888044773 -0.297013955147553
1258 5.55016143397899 -2.8924193843614447 2.6178692945799087
1301 -0.40679086722262514 -3.447702100388195 5.927180113059635
900 0.3477178788442976 0.7483040491649108 -3.5004853561969504
863 1.5972572070041335 2.8479384671917303 2.3399722959280185
1305 -2.1206387453053708 1.6437765058647453 0.15447502036481447
904 -1.7401506490684249 -0.27327502888690236 0.12800184049258032
1262 -3.1552564680085657 2.431268578322673 1.9425385088599598
1266 2.3343664635318584 -2.5477435898624283 2.396064115809014
867 -2.023236598451744 -0.035809987175355176 8.122878662240103
1309 -0.022166987448444156 -3.1591713213267694 -0.26384218287745603
908 -1.1790043227494624 3.0278969367725748 4.590768364259274
871 0.563541309349868 0.38913231796822983 -0.07294165940155575
912 1.7950513415063114 2.9826430465244647 4.07346881803244
1270 -0.2708677651822589 -2.917406177474831 0.6976131955770744
916 0.30492321424736757 -0.4862627769422143 -0.8457536421405042
1274 1.4278601260438228 -3.126656320095371 -0.03833868726253551
1313 -0.880076736271884 2.517260703388174 -3.6876723435019994
875 2.7649186339362717 3.1015713303547594 1.147460528858145
1317 -1.8405973169259038 5.497725220277473 -1.7441524114580989
879 0.9180872863260281 0.9913878189643617 -2.3894629923481303
920 -1.7372587342600674 -1.547534232077196 5.157483342845501
1278 -6.3499244670646515 3.047367464891321 -1.0470389371684332
1282 -2.142329908233926 -2.7736528044010464 1.618151421570321
923 1.271912903584624 -3.2983352565776634 -0.23296680651101528
1321 2.4315557435331088 0.4543692124298427 -3.6310380451302824
1322 -5.060565975804661 -4.2410534922983585 0.5063300125077081
883 -6.546916865443826 -0.2638142975444682 -0.6221506909837788
924 -0.3870179839815942 -1.9149744674131206 -1.194642828311671
927 -0.5688084929989227 -0.8408060093607204 1.8003902561268237
1325 4.670657151314537 -1.8300249015496253 0.21093663331750243
887 -0.7684302624590594 -0.45012442233469036 -4.125644618878608
1286 -0.47200151740776003 3.5975799597769824 -0.9366041885920424
928 2.452124004317251 1.9405286821297014 -0.14471453998635392
1326 0.6886997973327139 1.6461543465880148 0.6315181550465302
1329 3.155403983883264 -0.06605619410966523 3.5612417131778535
1290 0.3680928361724599 2.1053347126141655 -5.019162796559128
931 -0.6899796210368413 -2.7010056748406175 0.3226766689278658
932 -3.2063326666492493 -0.3194886479353516 -0.9832667545869512
1330 0.8416522415705212 -0.5790368508549115 -1.4667846960877786
891 0.19868470580762299 0.8113296217583946 1.1740859707393305
935 0.1483859091315041 -0.86556402502345 -0.6061320707821131
1333 0.6421663984852335 -0.02195268975805999 1.5002259252338237
895 3.5595173765022747 2.534564479919752 -1.4362384990576809
1294 2.2132597354133474 1.8171155302659778 -2.1479911612835214
936 0.9910339434159271 -1.8844740832325362 0.019280849972176224
1334 -3.749194629606745 -1.3004725944218132 1.2116757281411983
1298 0.8139512292431641 -2.473214142331568 5.018976868762637
899 -2.5797077754911903 -1.3300697861154496 -0.15478100962985977
939 -1.2956187242930637 -0.34726756319204377 -1.9044448895563433
1337 -2.7732559346573966 1.129759736055634 0.41625346865300505
1338 2.5211100490380534 -1.5470945886645042 -0.017379980909965266
903 -1.7604742100557367 1.7062749844091134 3.4750285372093406
940 -0.7529632722558132 -0.9067269347179654 -3.6969797594343032
943 1.5404529827422635 2.006656876821736 1.630846972815202
1341 0.293358626834697 0.7020468847114711 3.278428677151359
1302 -1.412256804461496 0.5239875745024545 1.8718482568694987
944 1.2344406066363838 -4.010141130892967 -2.001280712243981
1345 1.1519780129543762 -1.080892285473019 -0.9835341714812776
1342 -1.7745406184171466 0.8823434515737384 -0.6184614354970049
1306 5.343533195841081 -0.057816163688537876 -2.6105202001139456
907 2.9096867981007715 -1.36223778887192 1.7949031478538215
947 -2.8751053437709047 1.3571750286929938 3.287672418657243
1346 2.5397722599668002 1.083386079100369 -2.0753040502817925
911 3.7681845152722575 -5.222456986987654 0.7557370305114466
948 0.13450066560085694 -5.370139758118039 0.31193581938118736
951 -0.1660925959912543 0.38463343395454647 1.478278867300699
1349 3.5195601799121907 0.44247975718262905 -0.19943937644099893
1310 -4.392229855579661 1.3061740304489682 1.4364936982020307
952 2.724815932012202 1.5716666097453598 1.8817628448016857
1350 3.2556519707973752 2.3002546224046685 1.2136558847615182
915 -1.8708407618127336 -1.4125213671175794 2.756598006750648
955 0.42960809343791956 -3.433364881576649 2.284733746757904
956 -3.330720666311684 3.0481311092126324 2.116564247404774
1353 -1.4507129138869106 -0.31899812098639707 -2.6614083654497196
1354 2.289585967446815 3.043260028959998 0.299792592737054
1314 -0.005510171326844058 2.1929617800314456 -1.2615308122597015
919 3.6835282877864803 -0.7307880226201218 -0.14298284040632855
959 -0.054638916129091324 0.5463577386169907 -5.551832502978346
1357 0.8853554945948188 0.0033073407457988695 2.0967462712834126
960 -2.5088290368703747 -0.4510667356326264 -0.850224774583682
1358 -0.3863828234359864 2.03403227381743 -3.024146895756513
1318 1.1188888057235047 -0.9216252420753662 -0.43183324479373836
963 -3.076442567657722 0.2835570955040999 -5.14510912272094
1361 0.2718290401641551 -3.161010613610186 -4.802030303818317
1362 -3.733499114890687 -0.4608137663442486 1.7391910555588328
964 1.319381256509651 -2.0141283758399378 0.35327749170902784
1365 -4.709171350650267 0.6928730171724773 4.030235295394874
967 3.2899316471098006 -2.8173935471432627 3.035136954002862
968 -1.1848300242865133 -0.039262460333162406 -1.7057596298517643
1366 -2.5433200137596343 3.9310176639866534 -0.45563696008203936
1369 -1.5014019948372415 4.655543625874815 1.5063707359115412
971 3.4236223810671538 -2.1623040970041236 -0.7220532835715594
1370 4.317214923574032 -3.4001000275623325 -3.6523825855462233
972 -1.286580759997995 2.192035856987215 -0.9847152361921104
975 -0.8676303137149838 3.423639218045764 -1.804738374715342
1373 3.340224356200646 3.70350828120877 -1.7728049378578472
976 -2.421449373358051 1.3194765617884168 -4.890772784712903
1374 -0.11530318314539635 -0.09624949255716239 0.17008588498383514
979 -3.8119271235474255 -3.9286583563854753 0.10975432633728732
1377 -2.5281043922511324 -0.6346408286986006 -0.8217996601390221
1378 1.0485174186697532 1.0414302904280952 4.313697116175911
980 -1.8885308151909475 2.34738763295376 -2.3523855325705147
983 1.4606016442973528 0.13659396930032977 -0.4414019260268158
1381 1.222275628682793 -3.2022734826458557 -1.786154744904
984 2.9245028202984162 0.10907704805763772 0.06662109026227878
1382 0.12843786899899054 -4.083256683269835 -1.175899700462363
1385 4.185281747211642 -2.1095188623140713 0.9660930173642245
987 6.249951655224364 0.09553805668535492 5.190041628000424
1386 1.9336146298464176 0.0395139408072847 -1.2486716442739108
988 1.4307636034409688 3.204823454456141 2.7284706354103805
991 2.7997860198554974 -0.6444995152585806 1.520526906071872
1389 5.413826150259388 -2.1959020465830283 -0.21452865477524075
992 -1.8334742913356925 -2.7060428170502524 -1.2043504840439676
1390 3.128404432998848 1.4605767084919061 3.2427903763413197
995 -5.7639524772352075 -0.592326138187667 0.10552718577186798
996 -0.37760295441340813 0.4394936104872545 -2.4499112168199555
1393 -1.3143772184411244 -1.7551096203931176 -1.297207766303623
1394 1.6243945589092446 1.6066994214477008 2.029088198054172
999 -0.5491992859340797 -2.5160263416392348 0.7047692345966059
1397 2.78131279198493 5.247163364144782 1.2294664979603065
1000 0.3181468129571021 0.31833651613585195 -0.22193197902582895
1398 -0.24859508803239463 -1.3737154557304587 -0.08994802137876155
1003 1.4672286585246677 1.2279976163425674 0.38071076490637773
1401 -4.584275754944805 0.7217243644023271 0.8352685612045548
1402 -0.91785980106175 0.3762784004710084 -0.5761510788223488
1441 -2.3594087416069547 -0.15566653115820164 -3.243749869295798
1044 5.095459976281604 2.566734155884532 -3.285191586912498
1004 0.5150745830277326 1.8306107795814175 -3.639418636015216
1007 1.4239359242602923 -2.600557966151949 -0.732930360744107
1405 0.713486515518045 -2.9159952939929688 0.7175636788077587
1445 1.7762766737683255 -1.9247445340067193 1.0421782520603449
1048 -4.361786277912745 3.0484559642377014 -1.3365895331824427
1409 -0.7738865168585584 -1.10737199733176 -2.1563954041933737
1008 -1.1244308436641555 4.5382364375975195 0.0038072950241602715
1406 1.230370836429599 -0.24944212841567834 2.122848176121444
1449 0.8520316704762707 3.2363251600337413 -1.3441344191650781
1052 -2.6210330646664515 3.213882916446793 0.6856970155183768
1410 -0.19162380723946137 0.06585894922364946 0.42141843370579707
1011 -1.2598543540824227 -2.4473460827764777 -2.178213642723293
1012 0.08933956514305351 1.4461765945959582 -2.224146511961556
1413 1.1261577787768344 -1.166458674291823 0.8619351436058159
1015 -3.249670011838343 -0.2995263352347053 -3.3108054546551493
1453 3.6297789004687173 1.604815223005741 6.753621728385444
1056 2.59440295493124 -4.431207352648861 -3.5737023559649477
1414 -1.311104660386266 -2.0640330261719297 0.029579206632934042
1016 2.980130971806841 0.903583767106205 0.5974423474586736
1417 -0.7706073758803108 -4.531176938882291 1.508176661223483
1418 0.8437693740958171 3.9191295828397523 0.8805709180745499
1019 0.6767100623100168 -0.11549221300160907 1.3854190505830453
1457 0.5048190630704741 0.4846032200990989 0.5528483545915738
1060 3.8982123892032194 3.8760990942739317 -0.6481134477828118
1421 3.2470541629183405 1.1593010529179482 -0.6445254445962815
1020 1.619520705407607 1.9554501087688105 -0.9914015612370041
1023 0.10808181361967542 -0.667821665484785 -1.814928968994699
1461 0.48295129480358684 0.6567944921770992 -0.7354255968999889
1064 3.9783867449788577 -1.7548226147342123 3.238743089790696
1422 -1.2333867681790316 -1.403296075592168 0.8002616083759517
1425 -0.4504916960316941 -3.235591193747174 3.048237938930305
1024 1.475743610711654 3.2630417130149914 4.086705377520297
1465 -4.155710000022429 -0.8588623066646858 -2.1142885158112623
1027 1.1391576078240437 2.0712506601016023 -0.9758777455819567
1426 0.28871132795995763 -1.5819447618596592 -4.811146457164636
1028 0.9488988107904228 3.9351822243038423 -7.224577864360678
1031 0.787055100317005 5.008539586583217 -1.3885084786241018
1068 -3.61609010625439 0.5207765124474873 0.7779479264924148
1429 -1.814037123753906 2.0951521959463872 -1.3896844985281647
1469 -1.5853071704314534 -3.3859368047700436 0.10263597259981264
1032 -1.954427910958838 -3.790969426937009 1.0355614937037008
1072 -3.1173906864183945 -3.5776762127265296 -0.35298255680908464
1430 -2.251997450371241 3.1307058413919298 1.165412660156969
1035 -0.9495010716473878 0.8654915471583431 -3.0151704342827887
1036 -0.7918748439989227 2.103190414430813 0.6140001570976713
1076 -1.9310665077838927 -1.4219437458008597 1.61975902869608
1433 -2.8004617022937595 3.0855638233004554 0.7463831605334469
1434 0.858597081694331 -0.674643409532943 2.5681958557856905
1473 1.8946054993753982 0.6776635385425221 0.1673045272442788
1039 -1.7609167148380787 -1.4113756096815548 -0.18585891586886696
1437 -0.7363318673440579 -5.028339991378665 -0.6144218153453233
1477 4.305386097714251 1.5920880458284314 -0.12143908273690124
1040 -5.2537219545550435 -2.1089849148957347 -0.9251423091932169
1080 -0.7719615047842244 -0.28684977037100867 -4.044034581817681
1438 -0.34141787725413936 -3.098381956351678 -0.2520576317630011
1043 -2.7405012769064516 -5.56722840199303 -1.0526204588403862
1481 2.8482904495828048 0.18633523577492359 0.1221454846013586
1442 -6.4582782935710075 -0.7884671390760704 -3.139779575774459
1047 -0.4246076206355692 2.6611625913606543 -1.5916934498561799
1084 3.312342805117544 -3.9281604831140857 -0.9690741323907799
1485 -0.1879583433199153 -2.806558202176579 -0.012096206348842172
1088 1.1180161184234738 -0.12764781865053856 1.7253231889502112
1489 1.3855979274757853 0.7753492132835255 0.8160193791035036
1446 -2.605876019647005 1.112690748983233 1.4405040111747034
1051 -1.8724741264278766 -1.0111617672796112 0.8562308407151349
1092 2.6278592476967124 2.0620672958991735 -2.967501753933717
1450 1.2190819542578732 -1.1422185897586108 -4.201099876194716
1055 -1.8784114534847562 -2.040560229835515 -2.714163220951633
1493 -2.44060816285328 -0.6221871130201151 4.086857011965207
1096 2.737238801734694 -3.9072376286335517 -1.6384935585736602
1454 1.2513705695167259 2.7372009426517927 -2.240507872100481
1059 -2.7410650525091933 0.6190093374906614 4.748864761045254
1497 1.0260472090869528 1.509172383506715 0.36767825133934073
1458 1.096650400361359 3.229511289563571 -3.8424776723560066
1063 -2.3208307187526196 -1.2692513700573955 -1.4415350081482377
1100 -0.7389635634515934 -0.8465931555144299 -2.457803949103696
1501 2.2414017492047194 -1.193113752836645 -1.2055969963976727
1104 -0.1288873051200963 3.0826578860778824 3.8993837742269584
1505 3.6860257751146617 -4.900902831117566 0.019680428821890427
1462 1.0297332534215586 2.0331229035218246 0.6559223030020188
1067 -4.012010765355359 1.4639545942331278 -0.13004214151291646
1466 1.227571121038992 3.0537219822040353 -1.9391668188772242
1071 0.2999784395940265 -1.9808400520647746 5.05555166214065
1108 -4.651387945179714 -0.9609402319009834 -0.5412227768289265
1509 -2.7561942857720867 -2.417282744166642 3.5624007051590656
1112 -1.1433076758346983 3.1525773765296323 -3.340107652852181
1470 0.4489731547133972 -1.2826419640293174 -0.6186348089648611
1075 2.458006204152489 -3.734343279453507 -2.762265087933593
1116 -1.158804985388523 0.9328457477448118 -3.8242320546749937
1474 -2.1042838696050836 -2.4061384146730327 2.784281584407984
1513 -1.2242311182449073 -0.29385723936893 -2.236078950663215
1079 1.2480037386589362 -3.5464697870089315 -0.6082319164940071
1517 0.534643981197306 -1.7573033772259965 -1.5326564373690426
1120 -0.31184805981825703 -3.143270352759218 -0.9884387926005596
1478 1.705372060412521 1.6728082072331545 0.8865071430971296
1083 1.9553980844838623 -2.2176103663938282 1.4071037205905685
1123 3.2172620527074565 -1.4592316433373789 -0.8312557607583304
1482 -1.8017122792862246 -1.5594778841648984 0.43196944833865325
1521 -0.4397631569973592 2.4616757703137973 -2.9399669393346124
1522 -0.18941399443290263 -0.7648940787314078 0.8450756256143153
1087 -1.114225217068044 2.1591948338088973 0.9020529238306133
1124 -1.0781642121915098 1.7204626247839443 -4.823194518294487
1127 2.4763723780445583 1.3015891423152657 -1.5729307314990257
1525 0.550157420310103 0.284460889730664 -0.7555452487893616
1128 -1.7468699047803022 0.11177817678640552 -0.5088141338850973
1486 0.48592157028322847 1.9208756793256003 2.527585365215757
1526 1.2965782676110666 0.2675206405687947 0.4041181030425642
1529 -1.591088152686742 0.28198818590588476 2.060440919691962
1091 4.32210340131321 0.5696125160483048 -1.2794421388984099
1131 -2.543876519825461 0.9672488987155112 -1.515860217560889
1132 5.391771442851276 2.7673247542106294 0.25048695561124135
1490 -1.9408684365739053 -1.638936468263608 -1.7642856602577182
1530 -1.382099609443025 0.8002499842221393 -1.284520749773582
1095 1.8390792064605548 -2.9774892988240063 0.7263811257065622
1135 -2.6855175097630894 -1.660139313072992 0.6372312804077286
1533 0.31698803822562 -5.215308674726355 -1.8011367199893729
1136 -0.6834645047673444 4.783360144184054 -3.140677237096346
1494 2.1095387075291603 -2.1137998024714295 -2.751156997877608
1534 2.7342117487602553 -0.8983019278016815 -0.2707293801437938
1537 4.253650279527324 -2.901835218939192 2.571089162279379
1538 -1.0982063308929035 -1.1309540877685549 3.898754372310559
1099 -2.514811689013861 3.746431713803309 -4.000427835004148
1139 0.944790056882431 3.98406702385977 -5.926987154466554
1498 -0.06498382358712508 -3.3137932363193823 -1.4211658660561042
1541 3.8313607402803638 0.47058804409921684 0.7845581893645782
1103 2.4494368931801067 0.21165029475866695 1.3066266128200754
1140 0.08063523698158563 -0.01877985276317265 -1.2738094267417257
1143 2.0610936657173076 3.8236113951451767 3.749721413118356
1542 -0.2995221323325721 0.19694675626404687 -0.3921054091646093
1545 0.7540748590850193 1.2420338454707789 2.1324321904713988
1144 0.9312715580086421 -1.6068585228473045 -1.324879752220906
1502 -2.0043976859163277 0.5001418337969176 0.6909697496541378
1546 1.4567242233717057 -5.895819727832084 0.5297586266864974
1107 -0.9104435762187826 0.6758479945360021 1.3484543890845861
1147 2.2511577059269667 -1.788575675763438 1.9618746907132412
1506 -0.6185655135633225 0.28025362107679613 2.406878501968798
1549 -1.6770738900961413 -0.2010072674043478 1.034511823815413
1111 -0.5495906273685516 -0.4395346871773311 -2.3597089195746044
1148 3.3238857756298525 1.2923322502029015 -2.2539852620734973
1151 2.1349006586079504 1.7805331352262244 -0.008762234968303062
1550 -3.2262662934770825 2.2798277021786295 1.9334426081968858
1152 1.0533718489844788 -0.7582118864764492 -0.6976301916696235
1510 -2.668137359712809 -1.5715548331491154 4.1330406432610065
1553 -2.3933206064490173 -1.9013688513368339 3.7277390105434596
1554 -0.5449615889754914 -2.7668078712940005 -2.535352986829352
1155 0.6995397322878685 2.8913803104115763 4.237762985117513
1156 0.03899171200353113 0.8103447534858497 0.062415153615146636
1115 -2.3154478836507577 3.721076994482347 -2.344118096783961
1514 1.4594854613753676 -2.4053890961521196 -3.6093394724948498
1557 -2.53932498358743 2.0237780778874757 2.194119654889098
1159 0.7384225063518733 -0.5149108558242625 0.15646625475039933
1119 -4.855695053654712 3.8120552847446527 -0.3929707055267068
1558 5.627709658846149 2.3709617664235147 -0.36369262902216926
1160 1.6999734176512529 0.380882766197573 -1.8968954012062442
1518 1.1253789309606383 1.003383674319037 0.7795507633360514
1561 1.8954454921796962 0.7956021098043758 0.7706222302848449
1562 -2.01566807219519 -2.8943758922858147 -3.424760241083902
1163 0.9879576699544615 -1.7434982983547502 -1.860654614263819
1565 4.218099249989722 4.288572858739605 -0.5899539567476982
1164 -2.833022371887081 -1.2798999611285935 0.5549549277927495
1167 -1.2092335941334678 0.5109732488161525 1.5287359952046282
1566 -0.32518745760191975 -2.1231533737927344 0.38917030733858504
1168 0.5185682062208924 -2.6583150583968282 -1.6872279591621018
1569 -1.5813382094395472 1.2571665975972177 -0.844279569270132
1171 5.270224163279784 0.7227355150167316 3.3108990014705095
1172 1.4517098289717922 1.0958307241642136 1.9817660446039431
1570 -0.43977798953290953 2.4695265426933815 -0.6861350336851351
1175 -0.5008550897693149 -1.5063629779653496 4.368986768279043
1573 -4.4289798259128785 -2.0932359229459374 -1.8747426805595757
1176 0.050641479731101696 0.012174015409236892 -0.8159943629109337
1574 -2.0867751303094804 -1.8282047249183329 -0.18763871503712137
1179 -1.6168433590227163 1.5167492542649768 1.0793266403893251
1577 -2.2621316884686213 1.3906409444252212 1.3455260530238455
1578 0.14855608329067754 -4.371765703154193 -3.8958290826139086
1180 -0.5038789366922662 -0.634424273925597 0.19456944531422904
1183 4.205590359271697 1.0728659569991772 1.0166252827182747
1581 0.8576598400061634 -0.21074542288570083 -0.5690558890651902
1184 -2.2608547243902364 -0.30716021105897656 3.405080399930518
1582 1.6488234030503848 0.7733773503801138 2.092283815084989
1585 0.07691063798883166 -1.750742912537456 1.7201418603013936
1187 -5.914901039720177 2.8415586361304377 1.1513260611295453
1586 2.0408571144792442 -1.0352240752665338 -0.8442256756625418
1188 0.44676381102641904 -0.9964769565218837 1.460437429742007
1191 0.42590007364244087 -0.11906673108283751 -0.4944331175705113
1589 2.100127419464173 2.5139604026286633 -2.2556386566724114
1192 0.13734147294998475 -3.270016947620718 0.7818797048898127
1590 -2.5526026871390917 -0.6589166862437621 0.29963502219051863
1195 -2.202697639324578 0.15721038757512704 -3.391332649822276
1196 -2.196040536869035 -2.601825443336791 -5.8672839678095645
1593 2.513849534618354 -2.5125368438400923 -0.7059632340869529
1594 4.120212710503498 -4.439614010723849 2.6395359331049955
1199 1.3816734953232854 -1.359529008842561 4.963778937156659
1597 2.2732053152364764 -3.722099057372748 0.1517991178316928
1200 -0.8863572975495942 0.5926490370031776 0.42512191837274266
1598 0.2777393873926364 1.2232110223127266 1.7568813016899587
1203 2.0012598630238885 -2.3217809652586254 -1.231678744654517
1204 0.5501015221500523 1.0405533535003133 0.9940252292292389
1207 -1.6126647344796137 2.4985221555456287 -3.2759952706874973
1244 -2.0079047832588257 -1.3601506124546814 2.860004121490424
1208 -1.3336964974493795 -0.06094956845370045 -1.5013020333258895
1248 -0.5312430258746493 4.0304829665287745 0.3349076626071007
1211 0.8732254068383796 -0.6081972792142349 1.9781101235847747
1212 0.6951459678851031 -2.028560047047077 2.017130738505845
1252 -5.89330129091686 0.15239032182663836 0.690775861542014
1215 -1.4521201512083655 2.2033609615776557 -1.3578194051336177
1216 1.7823010885200492 -1.9102264587115672 4.4659207047440095
1256 1.2102081379837915 1.1488786227917578 -2.247583961316989
1219 1.201111006700245 -0.7322134727217483 -0.8147113137395889
1220 2.8143095038981167 0.9499952023115036 0.16865549895077855
1223 3.792238031387314 -2.289342157636369 -0.6174164391145017
1260 4.58641361189825 5.042131950617254 1.2971213954312488
1224 -5.144686177088654 -1.6437763615385015 -0.8819810785659431
1264 -1.6036804824879032 0.627913145052609 4.4182714829677705
1227 -0.9514199235071534 -1.8803816279246905 -3.7746088771386797
1228 -0.14759653117567537 -1.3078486175513644 -1.3352484603763606
1231 0.18711940990607392 -1.9684013069993287 2.5003789058868438
1268 0.3602339392815205 2.30004426297208 1.5144292552310463
1232 1.2002566297206907 -2.0560079399764484 -2.310717830968768
1272 -0.7366527226343992 0.09229340441434028 0.9053983364877153
1235 -1.142264113624217 3.3204970196243067 2.9948214711819525
1236 -3.646466561040179 0.5869899509841939 -0.04149632351279425
1276 1.0413917667921273 -0.07093929593566863 0.46368692910152626
1239 -0.10427647913233214 -4.726190715269674 -2.224431792666616
1240 -1.7384754795655983 -0.35486949713238414 0.0697993214985097
1280 -1.022860712682541 2.920296507922582 2.6697887376337297
1243 1.0990221219125373 3.8202354545794392 0.5751746331428469
1284 -1.371118358886891 2.2261351911533165 -0.39061183294972607
1247 -0.38497237226685227 -0.3953455604219973 -0.43580859971191277
1288 1.4355139999059685 -4.760728696002962 -2.7801873440525315
1292 0.4787394769968144 -0.5980381171809281 3.3250984584308925
1251 2.181419446337726 -4.259370975244202 4.236879938537993
1255 -2.8258801063233063 2.0240220105081668 -0.15127876413301444
1296 -0.7959043010251015 3.568271305550084 0.07373089649111257
1259 -3.436323807082464 -0.7688298929079779 -1.7032991022855217
1300 0.9783236608740484 1.2708684459622406 1.3496861078952969
1263 -1.4153093303686375 -1.149571619284825 0.15033618540426946
1304 -0.518677393328368 1.325288481075387 -3.615870071096261
1267 -0.9126258315316327 -0.38582712990828844 -4.210664484134351
1308 -1.435187421924577 1.112330026771126 4.783580029699558
1271 -2.655182000792878 -2.292160946446168 -0.23352277278683553
1312 -0.11088699557851357 0.5494963834900429 -0.482952263853613
1316 -3.1729784560156413 2.4975707203893034 2.7142229430179716
1275 -1.8740739783291187 4.840693371608703 -1.0908892111807968
1279 -2.091965138220758 5.9389095955630085 -1.715292015629495
1320 2.4285501901982305 -4.135102788526628 -2.7922376435428657
1283 0.15896121127261376 -0.3481456500199277 -0.6555196369473202
1323 3.1622791143239315 -0.1375295574830894 3.6336119740179686
1287 0.09953443372790727 0.8560187789316129 -1.7421947685253085
1324 2.055245908275719 1.142725656789192 2.7557007317002267
1327 0.8647577712763486 0.2742813284194619 -0.059260301379752606
1328 0.3216659816232866 -0.19919061963313647 0.3038588437823503
1291 -3.2560157336323208 -3.322334875224699 -1.059548258345164
1331 -0.7383135071022687 4.34572051794741 5.270382825089764
1332 1.4215779378908735 -0.3404387219655393 -0.016747594149341946
1295 0.7873258873812425 3.375314459063404 -3.2182709937898744
1335 1.0426724355929875 -1.721270547546373 -3.0930430582339175
1336 -2.1486581173439823 -2.747507328902244 2.629247355737118
1299 1.6911320319461034 -1.5250318007760755 -2.4803190052674173
1339 -1.4375015167099037 -1.8787469048130605 0.9085150749983598
1303 -2.77714428184129 0.3943983436584259 -1.4989579074274786
1340 5.366750397723482 1.6804660373563978 2.394617896724754
1343 0.6463822286916527 -0.8064287351297862 -4.0967003054756574
1344 -2.8636138955579487 -5.655649354045299 -3.849278878699048
1307 -1.2836018425876836 -3.8180770627390177 -3.055737031847344
1347 3.341852145372097 4.93862154281782 -2.4994471151604913
1311 -3.0346561174864486 3.430723025791377 -1.1125854784704474
1348 -3.9680063693372314 -3.24030334621307 -1.5993785702150982
1351 0.31052682592304953 1.900647534762823 0.2753123605602397
1352 2.2180559659876056 2.006186809852668 -3.107126687585561
1355 -2.5254580468410093 -3.7755160308627023 -3.0408486353860593
1356 -0.35365346433358286 -1.2240044051406538 2.014561367657246
1315 -3.390449780196207 -0.9658323287947415 4.360347725623603
1359 1.4620391947123492 3.222581918125989 -1.5532674488625262
1319 0.8032089975371408 1.0673784512199016 1.9341565197468797
1360 -2.4855104966211035 -1.2584876434215067 0.654215839676864
1363 1.1056912313204086 2.45374796918517 3.576781902692991
1364 4.134855177794334 -1.4079338957425218 -1.308795102563823
1367 -3.966942599959464 1.8538634617162562 0.19304439370947205
1368 2.9033408661482794 2.276330185294784 0.7087564152864866
1371 -1.9551047403488084 2.1891254294766957 1.5768139931350031
1372 3.1812730067335626 -1.112576526955069 0.010050466815159425
1375 2.448257687737963 -2.1554321952254147 -2.646789244527139
1376 -1.5972783651850524 -0.026009131999124975 3.3797535752696932
1379 0.7948708588939695 1.9972996241954746 0.13351730771663148
1380 2.9339825229246492 4.000566392870234 -0.9012315962316215
1383 -0.15410117199208193 -0.1777806009593919 0.1961721249238149
1384 1.11694112680409 -1.2387178818096236 0.09615971523334303
1387 1.799617280393989 -3.89334735544907 -7.516654934783047
1388 1.1156031166868923 3.1878749768708268 -0.5363065471737117
1391 3.5242242544989515 -1.167861741251786 -0.2025019425676585
1392 -1.3568208658151335 -3.629054771497127 -3.689977035908814
1395 -1.9848591989387347 -3.2792961867734856 -2.673120138917293
1396 2.371450972853574 0.6102326693938859 2.2348005889123943
1399 -0.7535901199849337 -0.9384622078354196 -1.1210285045005688
1400 -0.05600550022716548 0.8210877412668702 -1.0766874941794666
1403 -4.064538669345336 1.2880397131277646 1.1423050631521967
1404 -3.41298820769922 -2.1324335629794637 -1.119905731110463
1407 -3.935852534843804 0.328389133750368 -1.3845239077664075
1444 -5.423782500070562 0.13100370874280895 0.23672312501581352
1408 0.7858714608384245 -4.534254221337021 -0.24752454244971858
1448 -0.7527250180779013 -0.8591193492810518 -0.056841914825423556
1411 -1.2947503688952826 0.004609880945230378 -2.6031750581270194
1412 1.4315817269408018 0.4398530042544958 1.6243547133763343
1452 2.5287354279172116 0.0978989695129445 4.054193668132829
1415 -1.917703542108539 1.0005083336156875 1.007257424039344
1416 2.3385946881653665 -0.13750162275040348 0.8552510781852873
1456 1.6677948636614557 -0.536091698487725 -1.9821731036478927
1419 5.10444112545481 2.227148823943185 -2.4960203160843175
1420 2.8283202104776577 -4.229981079136832 0.6629328267950995
1423 5.177971573299398 0.9757993972023361 1.4143470934993239
1460 0.6434070468625533 0.1815677462418285 1.0338255356171429
1424 0.25437181244712026 -1.670068868859408 1.9526376632107971
1464 -0.7896478108033589 -2.608661815336431 3.130521939148555
1427 -5.242209083223321 -1.4461731747507836 -4.997057490085014
1428 5.224215513120961 1.1209318446997476 -0.11620238827817911
1431 -1.4883603240857197 -2.3202994621368505 1.9919603978574587
1468 -1.0654924207856598 1.9585890209179118 0.3388798398878814
1432 3.422899946012266 3.580242469706045 -2.3772460991722486
1472 4.399479856523281 -0.9348563181221645 3.445895300549856
1435 -0.7890962892246927 -1.5097302508607533 -0.4907961653024794
1436 2.9624921220365494 -6.243554893831411 -1.3466044838976745
1476 1.5892800150221 0.23020751110731902 0.09459031321738884
1439 -1.2076153860424181 1.3126015829418844 -0.663799748345335
1440 1.7348064148443787 0.2898443710547705 0.09630523400001659
1480 0.5087829706063984 3.0913578774548625 2.836356133805034
1443 1.84805804079061 -0.8999687416986143 -2.8616587435534497
1484 1.6257477530756852 1.783525331051863 0.5781771475473523
1447 -1.0036859091254635 -0.5713929610030472 3.017052282339201
1488 -0.8006267788560524 1.0164766814375132 -2.2757665870730546
1492 -1.5909545047043119 -3.6304679518922467 -2.111298190522503
1451 3.401060207795784 3.280614111217152 -1.6410228307553087
1455 -2.0309431517283487 -2.0934220484732617 -2.3899620231140806
1496 -0.437527385353963 3.4631740366916652 0.4355335823221921
1459 -0.8334888703228822 3.3265238495503406 -2.8783567197442297
1500 -2.0603112020296708 0.9192954640582877 0.2732689583187676
1463 0.5300388096989532 1.3343649253612668 -4.115690518711076
1504 -1.0289861511077742 1.2572911855857989 -4.206487216884403
1467 -0.6549171748671323 -3.8991899147493045 -4.993561021196078
1508 2.344660484463738 -3.9751229403590416 -4.834670003096326
1471 0.031539892149557464 -0.6609692160669005 -0.2641098236292334
1512 1.9638583758195736 1.770842459857426 1.2201108909430252
1475 -5.9740182105941475 1.7580557705902486 0.7524682124908919
1516 -0.044039084159112195 -3.3847076914641936 -3.3730218372889174
1479 -5.958239209225288 0.48621360195227337 -2.1748643883623884
1520 2.7478712424638374 -0.7075219706659144 0.39191696176364327
1483 -1.8618125073618321 0.0394287119819796 -2.544122254004801
1523 1.5756876505655204 -1.1176906982318282 -0.31368869582102815
1487 1.9209043859662482 0.8364094883790957 0.30979321306064955
1524 2.3699607646407546 0.38395826877443306 2.838919154007706
1527 -0.7668400972950846 2.973786924313258 6.73461426820558
1528 5.44708393642331 0.18596070809096216 -2.965568500873474
1491 1.6520341254459556 1.7142263200783618 1.3875351081645293
1531 3.1168171575407837 0.9158525637070705 -1.1166753035975319
1532 2.62174485269803 0.6111380696266708 -6.379746533836047
1495 -0.9449308372747 -2.812812405820497 -1.8570927293731436
1535 -1.2577420607495031 2.027891868535273 1.9544562151547138
1536 -0.9270483368466413 -1.05508955309878 -3.2345737995468404
1539 1.1723530961042241 0.896770748958435 0.6146898579543253
1499 -0.4601120818703333 4.487587714181641 1.7290750749514
1540 -3.0422772372990896 1.2241346252848297 3.0404486864726876
1543 -1.2191750798171277 -3.5869210877509508 0.38597680319074995
1503 -2.0752998284512496 -2.7897221044076934 -0.25336808537070543
1544 0.8012713935492769 -4.341683677987587 -1.0713807677312892
1547 -2.485459050944387 2.0752306602410564 -1.7662731757912737
1507 2.7120811272392507 0.7342290126288159 -1.8537025825655302
1548 -3.492272622585161 0.17107280329212932 1.5605636136985257
1551 1.8272119792634969 1.0038078562414363 -1.9406478868873218
1511 3.7959633719315806 1.0037391201885169 1.0704859419281816
1552 2.968236331655653 -3.30783832880089 -3.543997959903957
1555 2.9701746587383835 2.077543659217364 0.5664058339806519
1556 -3.801291947768541 3.1642474020014513 -0.959753527299501
1515 -0.9192824271196282 -1.7826347856392617 1.6871735479370358
1559 1.772448171297301 3.088250998711125 -1.6426148719535176
1519 -1.257615531508947 1.9980963283975388 -2.497138704648643
1560 0.31651298890627566 2.569352617538951 1.5102831478947052
1563 2.9100184582744624 1.94279680036675 2.6882056108459
1564 0.5510020019963155 0.7769065686595739 1.9908532966449182
1567 -1.7970489908118732 -0.7393474191078658 0.1917810983567082
1568 1.143566331472321 -0.7975639974595435 -3.4541416285246767
1571 1.766002374964695 -1.1706582895411226 -0.885508642643481
1572 -2.7610093257428963 -3.796342719916621 -2.53341189863267
1575 0.6569715528899579 1.8075915748372726 -0.10431091328057486
1576 -1.6909974944523998 -0.46473180099316275 -4.607740404783068
1579 0.2835022571244129 1.686060019698307 -3.3994350060093392
1580 -0.9236567299897254 1.8252402162117862 0.5961837786509657
1583 -0.42066479207758806 -0.9329354554015591 3.3424500639199612
1584 1.0989024772994895 -4.3110283810193435 -0.3575260080370225
1587 -2.319274393047048 -1.5623442941957066 1.720056922825057
1588 -0.5217645895671625 -1.988635178585518 0.9887525400233196
1591 0.5049528555702489 -0.21080650539259826 0.9208041839493222
1592 5.269102569189811 -4.857488837929003 1.1025286470228526
1595 -4.004340938998063 0.43538168452756415 -3.531879243503693
1596 -0.9527349595898988 -2.2165057681036004 -4.0986916020010495
1599 -3.8018830366885497 0.5926585676243786 -0.08247346556374435
1600 -1.7299655352111811 1.6705775363474054 -2.0646868863517422
1601 -2.590308453179313 1.5943521675578392 -3.1200021063319223
1602 -1.0545909789675942 0.03905972963276209 0.4124021159421939
1603 0.6374211075245555 0.9052859083474292 2.8227452799958392
1641 -6.117354247984781 2.063878028375038 4.050855213365178
1604 5.235591049836886 -0.06525803247286277 -0.20122174268152407
1605 1.7056387099611043 -3.235635566818703 1.7964601326242657
1607 -2.3378691086095023 -0.9689290168488083 -1.5143328554123385
1644 -2.247655086496715 -2.1419828470968443 -2.85353431347307
1645 -1.3567221939002632 0.14562994017316158 4.673422360944033
1606 -1.6589800079471406 1.4399306022486391 -0.3770894465734983
1608 -1.857583999650429 -1.9151893141667053 2.194336668119715
1609 -4.789321950809143 -3.0821728655653136 1.5932563144938006
1648 0.030186460945319953 0.9586913734105914 -2.7467057803712165
1649 -6.437522644762322 -0.4947325543509107 0.7078182506165243
1610 1.8638853946244713 -3.2589937337817823 1.0636449649777766
1611 2.0328098586483985 -3.942743872558724 1.5548982868952965
1612 1.3975898113241658 0.7155720185006414 -0.4460411129010534
1652 2.832331661470977 1.909356112039011 -0.9895451378534563
1613 0.38070586287948394 2.853491538571721 2.1206416670551866
1615 3.6335057875978483 0.7988824153942324 -2.0001721116335993
1653 0.43940049935715075 -3.680061222843277 0.4453009230382404
1614 3.7685406403042006 2.5525897671531173 -2.684430764569085
1616 1.1878484441844326 0.6137849402628213 -1.5747926933086644
1656 2.3760913782340696 -2.616082043996667 -0.8293109456275132
1617 -3.6771361780589595 -0.22319714654725167 1.10795000413753
1618 -2.1732391248213294 1.548418826580685 1.2916453934950693
1619 0.24464733915533568 2.1115874811922644 2.0257070896213216
1657 0.9733396368271882 -3.0841208657931225 3.445667616665129
1620 -1.287578855167652 2.1739638443364395 3.7880121089209644
1621 -0.7065409622054231 -2.319734056136887 4.7751964017951645
1623 -2.193049799355185 1.1986265896817898 0.38508558716657065
1660 -0.5891026116846209 -3.098565997292268 2.231078852470776
1661 3.6707753286950835 3.8208655658487873 -0.8537553892878321
1665 -0.22195142695399772 -1.9829649639927875 -0.6373620262456843
1622 5.229123188258098 2.8599453466509526 -0.7099243700460494
1624 -3.547157874922032 -2.7330225919307134 -1.5907590581393545
1625 -3.1695691113195776 -3.5662872163026074 0.9651690670464654
1664 3.27862491912104 0.28537872088450794 -1.8050080888948867
1626 2.750587356683332 2.6919891163909355 1.2603154218538999
1627 -3.3813693062565666 1.190976538383699 -1.2990151687520446
1668 -2.585057085350429 1.60441419109245 3.2895081154369903
1669 1.9941604950519696 -1.8322228877318762 2.3034952354563885
1628 -3.6115001070980957 4.612394327250398 -2.5438489873325096
1629 -0.7859914476962208 0.2674423099424686 -1.1686995923600183
1631 -3.4343076770144223 -5.727982152288894 0.400640172179199
1672 -1.1685914378506692 -1.299131647406025 1.610048215138431
1630 3.432134782616468 2.0747383127754198 1.293015957043649
1632 4.9574064158591336 -2.6848679791718815 4.023495907053282
1673 1.5670005626717254 2.1893996468924417 5.349984170604769
1676 -3.829631964265335 3.7325958461333735 -0.8518765328009426
1633 1.1982594673247744 -3.586324000736191 -0.9709212332072072
1634 1.563228217914833 0.7212189838006126 -1.731073591496455
1635 -0.48739461610715207 -3.2197950347161055 -2.053749698975653
1636 -2.927499453687645 2.5784261016911207 0.2642500451951397
1677 -2.2307742407691302 -2.2254324244654007 2.1611950779647975
1637 -1.5771522414266765 3.095441505710035 0.6124386359972658
1639 -4.168103512092381 -1.5034354815170987 -0.25462644444444216
1680 0.2715537929561749 0.8331420786973479 0.9383508991468315
1638 -4.15662274468914 2.215661552334253 -4.803858146871732
1640 -0.6258080225659008 2.499544256055077 1.698081164394365
1681 1.9192338002693274 1.6627492797407328 1.1379092541621836
1642 -2.3604384495339428 -2.9555302100898952 2.6249261243891024
1643 0.3986384005104444 -0.7082089320340264 -3.012709357719363
1684 -3.2654132936534137 0.7004097964545892 -4.207215466162909
1685 0.4605161050558156 -0.24016327878692037 0.20677320768658258
1647 -0.2822587518235064 1.487432332198288 2.1930553538807662
1688 -0.9477752621512026 1.2455757795702167 2.4384779861842896
1689 3.0754421996919565 2.671288491648561 4.757446791843915
1646 4.13776331274821 1.5379208950863688 -1.468606544968342
1692 2.1787181503203974 3.380720571944189 1.3309431208237372
1650 0.4474152250850793 0.43341404166859104 -2.003926105539873
1651 -0.04438591643932332 3.48727363822988 -0.5183439507725662
1693 4.569396260036735 3.278275159030983 -0.27701532365591297
1655 -0.30446224852897186 -3.182131402349546 -0.7256347457202
1696 0.1799336828215886 -4.167544224235224 -0.4645017674624716
1654 -3.0654895492393788 -0.1931304979118536 0.5890193595053139
1697 -0.191576557562867 2.09146191473927 -0.19213032099501154
1658 -1.512589835931865 -0.7056482949549596 0.30576021625273486
1659 -0.47456284427644824 3.184628837075307 1.438868412798439
1700 0.7467722488234808 0.006874808527148358 0.6346882177857662
1701 -0.3317733181404809 -2.428587937705248 1.798411030359891
1663 -1.6052493891403457 0.6626328006886985 0.34832722278964545
1704 2.3375793300993353 -0.8197491433875498 1.4179992968663564
1705 -2.9921000702226395 1.3144232670350404 1.785663969847665
1662 -0.5547822171105022 -0.5986216718093907 -0.24322869778362716
1666 3.0238663231530682 1.789017580168557 -0.6210048861140942
1667 -0.7381607768695894 4.64880085678118 3.506857459144083
1671 -1.3954326926023433 -3.5175557716605974 3.066977114046753
1708 0.3779190596556077 1.4049243158332092 0.3680204144841022
1709 0.6497977666269895 -1.6991124968020501 -1.986699664578128
1670 0.6403984121054672 -0.6932466997231278 -1.250168796187528
1712 0.8440110990053473 -0.5471449137157547 -1.1500160058793758
1674 -0.4833077066047811 -1.7758894209423066 0.2184670432285155
1675 -0.7549567185039914 2.589110244265089 -1.6837196577362425
1713 0.20179864504020964 2.8827279490051922 -1.0488550538726336
1716 -0.657296426583052 0.19030099649078758 -2.630436741913582
1679 0.18167232271864256 1.177965797096341 0.0827843083123495
1717 2.191522520792455 3.6465048261489046 1.1052613196951675
1678 4.112308435066084 0.7752724224069933 2.539705836191891
1720 -3.169908743681167 2.694486797326873 4.6072963424686835
1682 -1.588769597002951 3.9959127741043754 -0.29136028491583776
1683 2.4465522013004253 -4.127989635888974 -3.111933356668014
1721 0.6000266128297934 -0.7490683215032232 1.3748568886067698
1722 -3.6717534003270877 0.22837307642159688 0.8919479425785876
1723 -1.3192838705825518 -0.7961960164393486 -1.5331358321013326
1687 -1.7436416774645904 -2.3594377822994863 -3.412138041044667
1724 1.4635711863878378 -1.6819938627762305 0.07431823616495138
1725 1.4435546632094147 1.808951456279046 0.7135961265953857
1727 0.8964798841104139 -2.5934535429444137 0.23533484707687236
1686 -3.499110274128666 -0.6617446630586536 -5.548005993562061
1726 0.7243635647561003 1.0738449311361118 -2.2996871397198357
1728 -2.2189314254567805 4.604592130654659 -0.31164935023383555
1729 -2.1478687188001833 -0.6873998507229064 -0.006387066702177889
1690 -2.3845280412173753 3.001881358862 3.588887999887352
1691 -1.3405041427230378 -0.6756813208576559 -2.6302002539731286
1730 1.7849737500471738 -1.158470670588198 -2.2429905577905673
1731 -6.070661904758837 2.175051963469661 -1.6042037816156176
1732 -1.5075675034182205 0.37664843504194967 -0.06084051396683504
1695 2.7678140221711582 -1.978086845171038 -3.1079680075559644
1733 0.34648501883883603 -1.995763629258908 -0.8824910388725823
1735 -1.0066391178567278 -0.708209408956313 -1.780711956393112
1694 -0.05604545042597645 -0.7227833775623297 1.049632495540564
1734 -0.9747338897459911 -0.10672293002577803 -3.424362734906076
1736 -0.24364973482386612 0.4063194539315752 1.6850168668788406
1698 -1.875918290257363 -1.4107487401225198 2.0708580264255443
1699 1.0937799059750328 -0.20127483143246086 1.3026330765178618
1737 -2.688480685819188 0.6975123602179907 -1.5298435360875287
1738 -0.6381948806967725 -1.082904569061582 -1.4673678157977992
1739 -3.719686785594398 -0.7886107349941205 0.88758121561171
1703 0.6501106207277754 1.0136304605442985 -2.5929130372975386
1740 -0.9723593447268667 3.579707176190567 -1.4361108855911529
1741 0.6376555871961663 3.093119878693656 -1.794678195439397
1743 -1.0409999306100948 -1.693441411816408 -1.7612957657925288
1702 -0.3707889121339007 -2.979814754280851 0.953806137857639
1742 2.6792668386293297 -4.304081284388258 -4.390915451122651
1744 0.05592797894202818 1.1538866585497078 -2.8126801017361256
1745 -1.0029243736687512 3.058828968032857 -1.931824815513823
1706 6.409616067607323 1.45650707163704 -0.6655038222027972
1707 2.982061575523008 -0.07796371659988766 1.4919124332653624
1746 1.4402176606350385 0.14598771353362702 1.2318395664950232
1747 -2.047812789374363 -0.473666679438809 3.793368775462171
1711 -1.9465400106271384 1.7424935854949473 2.6271709674476353
1748 -4.155979253838116 -0.7673934449532333 2.8554377656560663
1749 -2.0446573667829124 -0.4454031104449267 -2.8462482007164147
1751 -1.0329044383545498 -0.38683119502836816 -2.2009235421103286
1710 0.8071913285273119 -0.029010684478978713 -3.204595948118185
1750 0.3524324843921893 -0.08670351022804945 -4.036442000356331
1752 0.8972970768538655 -0.6315226578655507 2.50461214754392
1714 -4.5713600174033395 -2.5431010061470856 2.620812715110216
1715 -1.6104768280622805 4.965337587635196 3.1141948457236843
1753 1.3784643778150525 3.5305645399348857 0.41997456340049155
1754 -2.202876811070914 1.4987287103176599 1.7283237774461686
1755 -2.2799822043989972 -0.894861851968649 -1.9295179278449404
1756 -2.738239464623979 2.0854166186297918 -0.3860014208416955
1719 0.5766079817742594 1.1566019833550325 -0.09835369296093388
1757 0.44347212820680615 2.606578136803171 1.306904359737344
1759 -1.0306210142520518 0.6730604870110236 -1.2166296197411743
1718 -3.39176531200384 0.23486267119550638 1.5530074109068497
1758 1.3931840151261274 -0.14939988125729434 2.124114229769912
1760 1.6899706022958803 0.48898493735071813 2.4128455614913853
1761 1.3352718707775106 -1.354998211942896 -0.8022699753275159
1762 -0.250618770332544 -1.8295822745583477 0.9368069721583682
1763 -1.3942707446735825 3.0502341545723324 0.476732374092096
1764 -2.463705502444435 -0.09205951996659663 -2.8901886890564636
1765 -1.2138531149560103 -0.12690859815391187 -3.781342213707864
1767 0.6391047606901695 1.079818145400461 -0.40528368257904585
1766 3.96396347522447 0.7942516990704562 -3.4213075059435782
1768 2.5283802472459707 -0.021977817633358977 0.15293644006336826
1769 -2.1161100031440183 -0.11802039331226973 1.4180672306399276
1770 -2.1964675942084777 -3.0567159623249354 3.023089481497125
1771 2.948408456023727 -0.4095855017120587 -3.160161468811311
1772 -0.39622352890866946 -0.31562068957964023 -0.4752391079752057
1773 -3.185256975964907 -0.19307817384955575 1.08615195853799
1775 -3.377461026811767 -2.1652338177772066 0.21775464246577386
1774 -3.9543197047639347 0.2509945764642761 1.34946785108337
1776 -2.8031901604623926 -0.32851995441287024 -1.6906799760910465
1777 -5.390743370802178 2.9075314756810617 -0.40701714351190255
1778 3.295091375358035 0.05073834154203816 1.4303087117463142
1779 -0.44800237321910286 -3.656867574317995 -2.254238787587053
1780 -1.3243919697641782 -0.39861154601423493 -0.9421320502829971
1781 1.6020932269845254 4.225765508589637 -1.3933423431854355
1783 -0.537956164659005 1.57748810688267 1.3617708973383431
1782 2.4406429648403005 0.11303229618256946 1.1202845043961334
1784 1.0064145934660418 -3.4012715758185372 -0.06744313632386605
1785 2.4964519968254386 2.0074365139444756 -0.9883152563493861
1786 -0.2663739610639561 0.14925573104794054 -0.8788682062572589
1787 -0.35911495785359393 -0.274441728843283 -0.11012946165203068
1788 2.1901256024108413 1.0752567296537965 0.20390330849449229
1789 -1.1891709672056523 -5.8312115347743205 -2.622546417899356
1791 -7.6711252581270175 0.3330480204708956 1.1083671649073938
1790 1.141628584942571 -1.4469435471143155 2.870739153730852
1792 2.089770157036974 -0.3432494090019042 -6.791322255178649
1793 -1.6440953637179085 -1.2236628043354072 -0.4119625157695771
1794 -2.932637997750158 3.3351939484332958 -2.939416788584429
1795 1.7347012650585067 -0.7966632207183353 -1.1064488233696366
1796 -1.3454002057099788 -3.888618055763724 0.02499350779701558
1797 -2.348584891941546 3.849981685596121 -0.24761440181504774
1799 2.1742991587548377 -2.77541097194836 -2.954770224573273
1798 1.3322746320300607 7.158536564335402 -5.199377924522828
1800 -0.6841427621304622 0.5581472189960565 3.2103810174496537
1801 3.2400294180195215 -3.0410146819762836 -1.5483746056127208
1802 1.6038964064568457 -0.2566453400545368 -2.2067529929658742
1803 1.1502395211517293 0.03541523869311742 -1.4824808880705735
1841 -3.820357256404996 0.8460204717018683 2.203458193544566
1804 -1.9415512030378739 -3.919658798648126 -2.322926445998152
1805 2.542901922935799 -1.5969908717394143 2.9098697034878036
1807 1.9804225235803081 -3.7363124216268555 1.0869298550396704
1844 -2.617449676982069 -0.8165041264481998 -1.7453535019447248
1845 2.7173384617423086 0.836559242943663 -1.4755682531927297
1806 2.9135354902411965 0.9780897882107367 0.8347438810202282
1808 -0.4862010132573397 -2.665606663232984 2.6806761602557603
1809 4.001333278159959 -4.559872851701156 0.25972266461148136
1848 0.05644922013089437 1.6712888921054838 -0.767677284158074
1849 1.1329197766954404 -1.9918266157182725 0.8033300389431091
1810 1.1885156938772308 -1.389699105110155 1.882322734127346
1811 1.5338981282815285 -0.15002083968507865 0.4192821296670981
1812 -6.155972513067617 1.1902597208023615 -1.101762153687467
1852 -3.4409008292849292 -0.7343796469724558 0.43565338831726913
1813 -4.1227544144834996 -2.7311621099636127 -0.6465755479360764
1815 0.30060631146764744 -2.349912807372268 -2.2529522619582028
1853 -2.1616796122174575 2.6375612971980513 1.9354928320200677
1814 0.4448207253047062 0.46791345934699724 1.9568044807691112
1816 1.2863541111553722 -0.9382068938820285 2.9747835235241866
1856 1.2156687818445673 -3.7093274513883245 -3.464832041851524
1817 2.0163989864013896 -4.041593646647704 -0.7219021833415307
1818 -2.0953635794973104 0.7899578121620515 1.4398400435604877
1819 -2.077504274197142 0.6081599332339899 1.2194821553787925
1857 1.288242316164511 -4.0917210966474595 7.174859272902901
1820 -0.8034846981683873 -1.3572460739797265 3.016245369862815
1821 0.7355083431935627 3.4321999223877193 -1.5909564844016193
1823 0.5466474257123587 1.7523495157960272 1.9036414271870121
1860 -1.9687894193160382 -2.101991291044869 -1.2959601282171396
1861 0.7908833568767835 2.272265028137598 2.488282266454333
1822 -1.0017417210232507 1.1234004294205278 0.4783159177550753
1824 3.8409102363849166 -2.6626434987725456 0.77704798883444
1864 -2.614071647259733 -0.09094302318061044 0.5375087893475692
1865 1.0545438872880724 5.147095050719369 -2.1948477149366123
1825 -0.6532329279705872 -3.1379838213271007 -4.360853726474994
1826 1.237123557564555 1.4308547388968498 -0.6697181398550386
1827 0.7883605747465944 -0.5676936008189236 -3.337800650062038
1868 0.9175077502434904 2.230467055029553 -2.8292743483003635
1869 0.2992335123349509 -0.6613693976372312 -1.0460554904245474
1828 -3.6439661407379886 -1.6099574626178903 -1.819405236486758
1829 3.646807870494629 0.25999457547306326 -2.20455278644227
1831 0.09352722589939924 1.9938178288741335 -3.493338515549334
1872 -1.7699785126750063 1.474995359877878 -1.4907807456326907
1830 -0.39781173595867153 2.320321691731906 -1.3261273583588693
1832 1.348715391567471 -3.7750216971065473 2.197285126219551
1873 -0.9561504801256249 1.7605469235857176 -0.39390767799079895
1876 -0.6894651396734476 -5.7849022077659304 0.4425448962114016
1833 -3.852695706735417 -2.630493143423509 5.455249622532884
1834 2.57700471355072 -3.7690612785090725 0.7833870761811527
1835 4.185639214691232 1.370145965381158 -0.44787189088321827
1836 -0.7794940965396633 3.978066487671081 -2.62068820609907
1877 -4.270539788088092 -0.2106665181812835 0.6539066426917256
1837 1.1760850016122528 -1.0228116435212615 1.3747538616233734
1839 -2.3197303100741133 -2.1780801759006208 2.306589087661519
1880 4.925581815167413 0.08146265848153175 -0.5342598423174626
1838 3.182231923127471 -0.2884881176698552 -0.37871162769176375
1840 -2.498898644517108 3.987404195510335 -3.067893039499127
1881 -1.8920101744595061 1.4194673030299196 2.891158879293768
1842 0.8888130272428133 -4.529849469274597 -0.8266178251890592
1843 -1.9477633467188964 -1.097743866452345 1.3571398770816776
1884 2.5976262203240337 -3.1897938605842078 2.303847664376134
1885 3.0842754404519495 -0.7543289766284668 -0.2257680336006624
1847 0.08531594879304717 -5.388941142727569 2.2426765892658866
1888 1.5170405491331551 -0.6276036801031686 0.1197665340743686
1846 0.02089254215454797 -3.422756922752757 -0.49214110936938965
1889 -3.3665979181484964 1.7771956277953211 2.732816377928356
1850 -1.1013708570664773 3.1020610938239987 -3.5380648971322364
1851 -2.792177614608978 -3.544741747070658 0.4945490515481672
1892 -2.0820041494830357 -1.336891911855444 0.31164945753611695
1855 -1.4614400950024102 3.5376315052931795 -2.821785738827517
1893 -0.35634647871995084 -1.6646055656783731 1.2887405681964301
1854 0.5882718808066788 2.9835489246621187 -3.254100505682591
1896 -0.045427508079394316 0.8995181729945565 6.220315564626501
1858 0.06378006468848374 2.4137240164623317 4.420431277440671
1859 -1.940089244427121 0.4814910864568792 2.865409941384276
1897 -0.13563653597329312 1.0714753341256322 -1.7469326911541305
1863 4.05488128351409 -2.3920611220684704 1.992468503409612
1900 4.2214579140723005 0.27506131785781057 -0.5430549160189712
1901 4.830156037387718 2.8254510162040436 -1.3883197045758031
1862 2.498583813272374 -1.795112605181349 3.1020339673209207
1904 2.2592011751925907 -1.316271181782959 3.84770642400914
1905 -0.09217812907477485 1.220574040186653 -2.7372571985808176
1866 2.011787959469176 0.0160691428303259 1.0628641456010464
1867 2.163847455949418 2.8805481201027385 -0.2283017664944637
1871 -2.7484549467001997 0.3488757481442487 0.6767953266737713
1908 -1.1539574258263114 -3.6090599310268043 5.057946338733808
1909 -2.482574443260304 -1.0134410106351075 1.174144562083624
1870 0.9068375107729599 -0.7427156220052967 -0.717129521877341
1912 0.8714674997083206 2.0720365731169794 1.053579143072863
1874 -1.7801764039005885 -0.8235185402660161 -2.443997172222458
1875 2.8625191534914585 -3.966542173181363 1.6071836666486508
1913 0.8893176384132867 -2.2356929207320513 0.016525894862816155
1916 -2.677735321361828 0.841776306527727 -1.6202845812675348
1879 -1.830202842835152 -3.2450273989063056 -2.16545672487009
1917 -3.181417368149154 -2.0329978159488737 -4.681556312309854
1878 -2.475196503889752 1.3670399047231658 1.2771420681519692
1920 3.933834316446156 -3.1827118360557676 0.5130320153524804
1921 4.053936216540164 -3.334296776138428 1.5756496363606343
1922 0.4863586813103431 4.878497406465235 -1.5732640757522824
1923 2.9849831126045565 0.9751892200335334 -0.38506087199850214
1882 -4.3152399936520025 4.26127929612155 -2.284387484366499
1883 2.5572250122989786 0.3304436666285419 -3.566881450848754
1924 -0.639334672695681 -0.3217633496716499 4.210389389159228
1925 -1.4429874892163075 -1.8393206689869324 7.323907647110253
1927 -1.862896365135101 -0.6671643721668401 2.166469714917714
1887 1.7576948117852638 3.288066861103988 1.0210734203472709
1926 -1.5382776622028262 -3.1750542299224214 -1.9416451161641248
1928 -2.0675303584110845 -1.7005418993820325 3.063935842646665
1929 -0.0669522994474751 -2.3205355955934692 -0.5425528532385432
1886 -0.9847330879746241 1.762288762201983 3.2373447646781153
1930 -5.158362597557969 -2.599845533547736 0.29921188511181296
1931 3.7043913070492485 3.498641005862272 2.115348789935499
1932 -1.3512126258489057 4.243323351496959 -2.4598340081072276
1890 1.1011525603434873 1.2744501379632613 1.2272944709758025
1891 3.4569397587012825 1.3216043164361189 -0.12033553063648206
1933 -1.4137115613220619 2.0800124007865497 0.5451108444036942
1935 -2.061560294380497 -2.477127785603335 2.5167472108565563
1895 -0.31656525163210625 3.811934231766281 -0.02614931000859659
1934 1.3044217630531199 -1.2804090270622601 1.2997068654523416
1936 -0.2310673018274289 -2.637101082085097 0.8512369905565441
1894 -5.603260538337796 3.687205815994278 -1.8503253585639845
1937 2.8428593173479553 4.293795915108944 -1.1416744761494573
1938 -0.488233761156677 -0.10780520841802725 0.22878766485602553
1939 -1.4439426437888687 2.333749967283666 -2.545019945239247
1898 1.9327110778355971 3.525828967842009 -1.209603438852597
1899 0.08599375590094419 -0.7110206842268983 1.0623321766502762
1940 -2.824539591551279 1.264663440372453 0.31567101083786725
1941 -0.501869165384875 1.9422361714293555 -1.9264010564240848
1943 -0.2770314735711959 -0.23139781080804486 1.0194689519202056
1903 -1.6189212190103517 1.0902348477951285 -1.4713963463966737
1942 0.13934430440160353 -3.5129452458505255 -0.06241950261691243
1944 -1.7795822991123982 -0.8757393975685701 -0.29971908255808766
1945 1.2863277071396122 1.4185050902962426 0.279965981760816
1902 3.1359052930637468 2.087948041613994 -2.892885294876788
1946 -3.405726659410281 -1.6084850480323905 -0.25867769650951067
1947 0.4129703883267963 -0.4743223132828731 2.083953005635335
1906 -0.8529386131232148 2.1363811421459977 -2.121925378814752
1907 -2.442307617578566 0.18212337115410357 5.593611645584155
1948 -0.6705636149300687 -0.13917688518172658 4.498709624750969
1949 1.3583069394471279 -0.6018333854153319 4.303586233868296
1951 1.0750367297378836 3.353194986544491 -0.07952062017188805
1911 0.15128163256487595 -0.952015456162076 -3.932724130393651
1950 -2.4103924825296614 3.52948039080578 2.0706234476317698
1952 0.09452441879909447 1.1585277927152116 3.068899358020356
1910 -2.9399870189707533 0.2275439795676857 -3.9120856297435456
1953 1.4987957235525602 -1.3634076729463813 -1.1378166936939214
1954 -0.29260621985907387 -0.162076524765454 -0.7397219394685887
1955 1.1192247176546146 1.7270942235273863 -0.15711438085936025
1956 -3.736095621713401 0.057107511187019684 3.1990517970749917
1914 1.9207514375170287 -0.15785956251494004 2.553086737260109
1915 1.540772311102645 -1.2524955104733428 1.0008526107388804
1957 -1.4377612673908409 3.255704276710771 -2.3252421365891904
1959 1.7401935711618577 -3.7192426019318416 0.5183105797307612
1919 -3.819847972014113 2.4871428032908716 2.3013222930113066
1958 -1.683912776640357 1.5410457855900754 0.24759770751607896
1960 -1.0331680747630614 0.5718685745951786 0.9188783914261363
1918 -1.9780826436991763 8.371647625287363 0.1876031228322939
1961 -5.085457530605814 1.2845709761457467 0.17379121650539053
1962 0.5017414983309093 4.3224251323421745 1.2614750640054224
1963 -0.5431674620983711 3.4233263163138345 -2.0691596660715015
1964 2.787975166462454 2.186600526513537 -1.0146081107989018
1965 0.7301169907090075 0.21660623950394883 0.20783562974139622
1967 -0.8151777598748555 -3.5743292239805076 0.2665137337290003
1966 -1.2319108249780608 -0.3870915886612715 -1.3154696424488448
1968 -1.400563873233133 0.7117594668029721 -0.49489576972165067
1969 -0.7428923246666698 0.5621414272031956 -0.20791573595931584
1970 1.12743660309817 0.04583564788274661 -1.387217313881885
1971 -0.6574672662298521 0.07319073074438441 0.007412879090434459
1972 -0.2216056441559189 1.6778244655500636 -1.2873107572812472
1973 -1.024980795880305 0.7460635984477502 -2.6678253164387313
1975 2.3857083676411057 1.3443026317036497 5.011565733762426
1974 -0.04813053955530876 0.7390293780572575 0.7276479647632956
1976 -3.5906483705691246 -1.877871709045133 0.44655538838595815
1977 2.015162129272537 -3.02254341396291 0.6709054677774524
1978 3.2635484818883818 -1.47693169431743 -2.268866314192791
1979 -1.4868903871417878 0.98310006563266 -0.3728750083732047
1980 0.9438166629639926 1.594282091609895 2.1699084683818093
1981 -2.3016747874953976 1.3360557853044643 -1.1915069259147002
1983 2.445910684828253 -2.910436786834302 -0.11006505277225455
1982 -3.054604351600637 4.987796167517238 -1.1468658565345022
1984 -1.2191991921976617 -1.6173915836366708 1.3300230232817332
1985 2.6593411003872314 -1.2484937927822333 -0.49163793224483776
1986 4.026526477859128 1.4259190230368117 -0.7590919875772039
1987 1.0410712418254495 2.588218076103788 0.34481178907029036
1988 -0.9495032130021506 2.7919216375079663 1.2262466413223152
1989 -1.8897965465048463 3.255528348612373 0.8058705371401144
1991 1.6465205151289588 -1.3350965189039616 -1.7870917105205484
1990 -3.00552603553309 -0.15071847625058074 0.6509298866549965
1992 2.422373247678305 -1.8348866693436545 1.2124520891531834
1993 -0.20503345824580962 3.5307692975625393 1.337912894243666
1994 0.7491212060083703 0.11973002835051012 -2.970999675616678
1995 -1.288196963922225 2.847366528765696 -4.506261157168076
1996 -6.322667781395187 1.3363504804768258 0.38067207756921945
1997 2.4068394075816557 -0.4978140716293776 -3.098264429827031
1999 1.7013245109785458 -0.42036908675105855 -0.7474508013830136
1998 2.6238721729565335 2.2607280561157763 2.6209664725844486
2000 2.3304857623843414 -0.47692022444591525 0.8371120043097157
2001 -3.1475839624039748 -2.0702963767627445 -1.1990296604304511
2002 -2.5359423016175766 -3.0155219379077116 -1.0617749935779164
2041 4.282460242775722 3.1010107687903727 -0.9242063152696754
2005 0.8037267369982977 0.31642762173488626 2.4432218389986025
2045 0.0794420596206633 -1.4273979199224673 -0.6186300368157005
2049 -1.6803447097497906 1.6885842317225899 2.0736976685899955
2006 -1.2802296859208533 0.8159679366078503 5.047796175134601
2009 -3.1870037702516685 -4.276932454869754 3.022376081909171
2010 -3.711188617818566 -1.8143603515828632 1.4578461814408068
2053 0.5327720487895017 -0.897382909675717 1.314039254536391
2013 -3.7233636960295398 -0.85003750622745 3.9967993691237695
2014 -1.498914370627848 -1.9805604987391638 0.10809656505559535
2057 2.9360634560293626 0.09088525106617462 2.6809684565861414
2017 -0.9839862561441665 -0.32248697956230576 -1.0088783351824497
2018 -0.9733843936719889 1.111248228628782 1.3826488639596988
2061 2.317383143312514 -0.6138983897923104 2.174096487775657
2021 -3.6475265212817054 -4.80704127257852 -4.082406637343852
2065 2.2376340622939255 5.2759130229695765 -0.8304216242216698
2022 0.8543724232981182 0.8675091098091006 -3.8288462889011323
2025 0.48797006103940294 -6.192215434532253 -0.030474208715624947
2026 0.14354353018296256 -1.0817563498330323 -1.6678677883334074
2069 0.05565571748972501 -2.078819177359449 -1.3291977272956987
2029 -3.610345710030983 -3.1158429080551597 -0.6676845866534032
2030 0.20863081612730158 2.125153486457643 -0.7513920093555753
2073 -0.5280059656657128 -3.7554709941122635 -0.6811909696313588
2033 0.07047904953916284 0.8471545791747594 -1.6532557655707476
2034 1.6924658617343233 -0.0029992516664128677 0.8999698896202016
2077 -1.02540198075065 3.535245463985312 -1.2631005811744513
2037 -1.7124909299473754 -1.8779154100998747 -5.351446095563013
2038 2.3046940132404825 -0.19884480738039173 1.9033011844292766
2081 -2.1597814969696834 -2.4093842938360437 -0.19292344690270247
2042 1.6516267629424062 0.0008324299720575097 -1.7976104030751285
2085 1.3905905031114112 0.2281616536901185 1.6261931021139804
2089 -0.4558689447662978 1.3932189419845005 1.9761758539400063
2046 -3.2347253831588296 3.123520787914606 -1.1478985347676443
2050 1.2091321928448757 -3.130436721765571 -2.613905294848096
2093 0.8847779559413891 -0.10416508862649045 1.3309914210521818
2054 -0.8754557956924324 0.8021659523301817 0.4133259182359089
2058 1.5826160279945616 -6.227814127320202 0.0858697748493305
2097 -1.9476615274399602 -1.7821806782383347 -1.6483030258611935
2101 -3.5730770466384127 0.08322072995764941 1.9802630171755786
2062 2.748003215328654 -2.4279158060347146 1.2133717981080565
2105 5.003766132416418 -1.052789098638151 3.322154504653868
2066 2.315328356629029 3.5646200455767185 -1.4659031076646296
2109 -0.7850412909893769 -0.688309013718762 -0.8123718937202258
2070 0.6460905786695236 -3.1384277768348965 3.292311704949508
2074 3.4764348648387124 -2.540698524620175 3.025576498951568
2113 -2.169145356271906 -0.6253228219044692 -3.516562309934383
2117 -0.7312728072010225 -3.5743267360684245 -1.9221768463059405
2078 -2.575098376425494 -0.31041815061553946 3.1268109741930012
2082 -1.300821649212725 6.425312266853969 -1.3741201406728654
2121 0.728632829816001 -3.899025483635411 0.79404964289504
2122 2.744806554154879 -0.6795415119919566 -0.9261723518634772
2125 0.9221949658773498 0.7356462012906458 -2.8791737427375343
2086 1.489210689583492 -3.52172974885174 -0.2900963556846652
2126 2.8316382041011807 0.7539006062735433 -2.41425445699856
2129 -1.7225888197631323 3.360877862899965 2.538515587096292
2090 0.31676489080762127 -0.7127134552081541 2.0070118475664565
2130 -0.07032235711625787 1.8360038031893176 2.2820292565981624
2133 3.3321691802791262 0.4643233260821098 -5.06342437861848
2094 -2.613822220919917 4.741450397899937 0.8817521276425665
2134 2.042320553868955 -0.17603985057029847 2.500102261842669
2098 0.9424792363293569 0.8787776122880274 2.8904501523018564
2137 0.4213758680200227 -0.3786728844699188 -2.041244463858671
2138 -1.5544337111317226 0.8787496939219449 -3.326794944495215
2141 -2.9533841163086865 0.3570094191081369 -2.680567097419475
2102 1.4305968518143368 0.7286769033349315 -1.7998308645243888
2142 3.7186944163471694 -0.13513001213298603 0.8944175501018768
2145 -1.3156548954935559 -1.460202783025121 4.833490535761383
2106 -1.7548203399266786 0.17149202142003814 0.2099633702190926
2146 -0.9578902487702893 -3.784320620721971 1.7491225228611063
2149 0.13253746584341844 1.7109394407740321 -0.09109612368343267
2110 -1.3590946236987789 4.7797634202697905 -1.3905774625578002
2150 2.0904946945140086 4.922976506043791 -0.21291350712904433
2114 -1.2764377810196783 -2.156512977567265 1.7715044469744066
2153 0.6324862445687032 0.12699169978554442 0.7494027780209384
2154 0.11341212492861404 1.0538472962442191 2.9330039013782443
2157 -4.26706362323866 2.394954843124598 0.628648907820936
2118 -3.76096231144969 -3.036658034837042 4.482810216715712
2158 0.34855737769990336 -0.3307803917860364 -4.106816383936312
2161 -3.5338412632111833 -2.6765286759602955 0.5478220523827595
2162 -1.3010172427835147 1.292362718605183 -2.3572281098242858
2165 3.828554523510796 3.0129873347276184 -0.17898763661146147
2166 -1.6420633847389936 0.2096710124471594 4.344124475221386
2169 -3.5745586135963867 0.8648396346751337 -0.9241309494220462
2170 -0.4199304436042648 0.1853603798165673 3.4879765780399783
2173 3.13293396271631 1.6594758837805221 -1.6689758067628429
2174 3.706680960474875 -0.32242759756230444 -2.5540256389727305
2177 -0.495384526630954 0.7708424385719377 -1.1253610384843782
2178 -3.6663315560378757 0.9176613509683846 -1.629926914569001
2181 -1.0744718111216756 -3.274825320365384 0.7286762997495193
2182 1.4699013493827797 3.6881225332100174 1.0369425497892322
2185 1.513049411238842 -1.7757637061932583 -2.634651874315162
2186 -3.419035139171086 -1.8247375000776958 1.491817721260362
2189 1.7029535378950342 0.29340677418731953 0.4569790781126975
2190 2.0775101667661904 0.03592493582553218 -0.4607845245937339
2193 -0.044452006443746 -0.2153409984333528 1.1659136571396589
2194 -0.8354815214603095 -0.6211508788114943 -0.2912228659028767
2197 1.2685465419794517 4.318360891035012 -2.3141991035882366
2198 1.2463342076364938 -0.91945909280767 0.7803865474544922
2201 2.461561619030534 -0.8375254255630067 0.0029560952837901595
2202 0.06941395088929324 2.5161660762008604 0.5908845672866676
2241 -3.3468923713970753 1.8691520227428746 0.121131765118447
2205 1.4232195012361144 -0.188680503866798 0.4560212382922178
2245 2.313939786996922 -1.2635829386339543 2.85662432576998
2206 1.211612113368161 2.369319600400286 0.3573596262482557
2209 0.8720772433404552 1.538983045796076 -2.498357812078101
2249 -3.3775285884182087 -3.1621887337417025 1.458223238292832
2210 1.4650463535812 4.419630198407886 -1.4363330173697106
2213 -0.6936854310559851 -0.16067850136594378 -3.6609545880387757
2253 -2.938016379559912 -1.1244413124916885 -1.7546160975914398
2214 0.6020293121082196 -0.5928890786542499 -2.3268761502519753
2217 1.330280600110123 4.302218002972247 1.753036300751597
2218 -1.2669245450588265 1.0842511000674417 0.9804525319812987
2257 3.20418301250077 -1.5157177825693269 -0.1653735264720411
2221 -1.0238006057563813 -4.030265845486335 5.5176361958922975
2261 1.8400422500450648 2.661467649553749 -0.5831911719404229
2222 -0.49952239276520105 1.3010205723140793 -1.6939579228802577
2225 -4.678362783602637 0.36895851712638555 2.3887345524827444
2265 -0.38433612093674424 -1.3585646845499035 0.40328691831582014
2226 -2.4171660037362686 -0.3874315799558443 0.24217433598966231
2229 0.757723621232243 4.324828808543427 0.7775463521650875
2269 -1.2689667496142796 2.385021805598524 3.855104136220853
2230 0.12256405451193443 -2.229263720206788 0.5020815909901497
2233 -1.3438467196107793 -2.4840642232864325 2.3125144614860464
2234 -0.9833271368927307 -1.082985027721689 -1.4163600173004487
2273 -4.46444245518816 -3.4824289058285576 4.392921131300811
2237 3.73882559988874 1.3450131299719699 3.061048266342746
2277 2.928684788187392 -1.222977851252607 -1.083726659050291
2238 0.7591494811940236 1.770832815472016 -1.9538055779606436
2242 1.4918582174512958 1.2424880317445963 0.8950946710706122
2281 3.3636956520363896 -0.7022472745344016 3.0804540202693422
2285 2.241265331836993 1.736392180095618 0.03125037766237367
2246 1.4401349185984897 2.357699876452483 -1.4588517233222316
2289 2.1086698087444575 1.0653402129784606 -0.058574466876532366
2250 1.3233644171277954 1.6898034803296802 -2.8830461935692817
2293 1.2776584305219516 2.3822738518569735 4.0038651969375065
2254 0.49436386466106724 -1.3537738488779816 -2.7387165974343732
2258 -1.184237107877735 -2.5411218042044483 -1.4298785873841322
2297 -3.1426907974789264 0.2914065399034012 -1.3099582167824249
2301 0.8787841203500922 1.0510200860782584 -0.5123087850731763
2305 -1.1627290652996356 -1.6022925329072124 1.859026096507541
2262 -1.9951939617893866 0.4056744368911144 0.902859643253952
2266 -3.219022201322941 -0.9781724383701768 -5.239058878828345
2309 0.6599827499112609 1.4820289052963047 0.21893310031611485
2270 -3.8905138114297317 -2.6830389618542 -1.4683421224071156
2313 4.518644317782164 -0.8114005150065464 0.9845514800661368
2274 -3.452870237347732 0.8352876204684178 -3.0679487168526394
2317 0.5275325565713186 3.7934725457392595 0.9063083230134561
2278 0.22987823920338968 3.724816544474858 -0.5943945490346666
2321 0.0891887942223845 -0.10090213659043194 -2.9042046040830196
2322 -4.019171889045021 0.8528395280889641 -1.1058509264923666
2282 -0.08176820520488931 -4.078024625001944 -2.832852948156345
2325 0.690016247217544 0.483741229173781 1.9132733012539433
2326 3.6079796592126034 -0.6946514543206382 -0.742358318897183
2329 -0.7354242171770017 -1.015495168929729 -1.614674234319011
2286 0.03245928178364658 4.713295680241844 -2.351101458578657
2330 -0.7087360608000881 3.023228249757022 -1.372944869229121
2290 1.2078678682961983 -0.45961629292367406 -0.5362883729169451
2333 0.8149395628215029 1.3468380531139963 1.5101847837250553
2334 -0.4102097671964739 -0.8059394240021032 2.1323381590259216
2294 1.7515874992888976 4.299640498684181 -2.9106005139031152
2298 3.364542469249279 0.051511495235577735 2.1336783150543237
2337 2.1968193628137436 -0.972534599036742 1.8667527558888695
2338 -0.05353055607322045 -1.1334542215899719 -0.4012920358000489
2341 0.08640639707864448 -0.6938863200748171 0.8784043908759013
2302 -5.217122064069145 0.9872891159009012 -4.07185221980023
2342 0.1526507878421181 0.38531889125776825 2.255333261520031
2345 -0.49585717688291886 -0.7189920141525388 -2.496228047105822
2306 1.7913680044532794 -2.337730606996398 3.642410088643992
2346 -3.5205546076240606 -0.8717097668341016 -2.464367649094529
2349 0.7616943111614959 4.266326675540038 2.3922443482206943
2310 2.571866686626358 -0.5519615346798771 1.007274723292019
2350 -1.812225381306738 1.7722635034454073 -2.763848755544603
2314 0.6583746642093257 -1.4991737235179707 -2.055995243719296
2353 2.896548085032263 0.6673645615466797 -3.3123804178579714
2354 -1.5890390456916392 -1.7774631473318923 -1.071991636935334
2357 -3.9736223110325635 -1.2675386975935738 1.0239097032530975
2318 -1.434558372679299 0.9029579178852135 0.5302457719343798
2358 -4.219520583122905 -0.8904366523607646 -4.3823800866349965
2361 -6.3663826158048975 -0.8270078776642006 2.621391150756627
2362 -3.160744595673745 -0.44460104872577577 2.018604619139576
2365 5.694246199381081 -2.1128478413436698 -1.1182932398792473
2366 -2.029705628703359 2.591606564892183 -0.20248757969582912
2369 4.082023700133542 -0.9173121573291625 -1.1108965845404666
2370 -0.018912348229599838 -2.1589731960588057 -1.0589231088983886
2373 -2.333364600135152 4.758148918258005 1.6775071817234117
2374 1.1941918032365844 1.3818956340538457 -2.360323886009574
2377 0.5337470993695353 0.41925470180116187 2.8420593043310594
2378 -3.1284409752203493 -0.5397177054641127 -1.258069309758389
2381 -1.5165313298883194 -1.7195373064352832 0.008431215321902788
2382 -1.2481525237479696 2.8126553870393898 -0.3219558959403529
2385 -0.03769133048931261 -2.8140483035701562 -0.21512257516341046
2386 1.6467077881059622 -0.7453598561700651 -3.536189972000761
2389 -4.108748745407913 1.4684047473848305 -1.1042780646942714
2390 -1.2926501109014203 -0.5723192042731428 6.006439648204085
2393 1.623066166299525 -0.3275921338129844 1.255491954618968
2394 -1.4892897591958096 -1.172068840810616 -0.1532043094149087
2397 4.4036231291807235 0.26990037963451363 0.299353834000833
2398 -4.192281862046619 2.0544197172087344 0.1646801016777773
2003 -1.0264138269411844 1.3133777519449155 3.244559035353275
2441 2.9506390242968967 -0.7203104189152545 0.5233909746128885
2401 0.7680272659692683 0.7670905815816321 1.3571797972573443
2402 3.7863657570974274 -1.220636313776642 -3.010768410292607
2004 3.027699466764304 -1.570614694982099 0.8506592014032335
2007 2.3520550493265766 -6.325191776513296 -0.9726192443679108
2044 -1.4025183945499207 -4.872402544710931 -1.4226873273442564
2445 2.237789382878043 -0.31990035423176993 0.26219417071954076
2405 -2.530557367463361 -2.478682306278088 2.7225567598783584
2008 -0.1730286282162375 2.7940160008698287 -0.8648589919584724
2048 1.1596081434440824 0.25533487424080864 2.980202758552701
2449 2.500136632667246 -0.6397688760534479 0.9139718843503742
2406 3.6964440851662097 1.8414044006152674 0.06660160764954824
2409 1.699668997609419 3.185112759151901 1.6091173254737758
2052 0.362977825645711 -0.8839720443252683 1.7431219457855054
2011 -4.127764657691878 -1.1408279251483309 0.7703506629808272
2012 -3.7880769309658486 -1.6101050680886466 -2.096906694343036
2410 0.8896458808572614 -1.0875180881975144 -0.22496030641940734
2015 0.5100605277234931 2.425475068730253 0.1850068788664462
2453 -1.0554328369983892 1.4277730119548362 0.7152552705291656
2413 -2.1231825876572445 -0.44158224302201954 1.525337387990579
2056 1.075253164372497 1.2475450696340522 -0.510958767098584
2016 1.1502685123039498 -3.8382530801172092 -1.0413685275593183
2414 1.4008259848099767 4.806905761447354 0.6161364267365149
2019 -1.2210662961838163 -0.902525351122673 2.534144400231285
2457 -1.4646316314735788 -0.6298446646432416 -1.6240636099762844
2417 2.092150688851779 0.753145034618017 -0.7220664311505399
2418 -1.4508352671986027 2.5921308678139816 -0.07596589239891753
2060 0.23182325508555265 -1.8677075709202955 3.5171615648056114
2020 -0.4888976046540649 -1.097861116734718 4.3205035193110435
2023 -1.793889661639611 2.0805497741025594 4.435664141278793
2461 0.6191855240623364 -1.4690561025269375 -4.186676526954713
2421 1.4330100568593351 2.9586235875910805 -0.09805116522304881
2064 2.292176028127642 -4.387669601353432 1.494158144502951
2024 -0.6359758270686233 -2.474535807508668 -1.9142955051967743
2422 0.9628955440235648 5.339422588633853 -0.9798920040628193
2425 1.1958043034181813 0.8791580098427909 -1.246731351033632
2465 1.184996656100449 1.39840522089432 0.6885568420709897
2027 2.0886186401810978 -3.0547475295292323 -1.0265750767354977
2426 -0.6342549163671976 2.109471549847394 0.2478573709095041
2068 -1.2452863160005367 0.4977276366298671 2.3570313391795374
2028 -0.5814206572228495 0.6684955441618674 2.3523313452691403
2031 -0.7708142819444618 -2.0446143011543008 -0.98807873374279
2429 1.1868670421970267 -0.6220966815035386 -0.15156755362017874
2469 0.4064090460231734 0.8560500769123173 4.674683260565948
2072 4.116623845315742 -0.5142172958087384 -3.92944009381076
2032 -5.678780937244073 -0.8171917643390341 1.4743910536680314
2430 1.9656542388076206 -3.3751718039255847 1.7833534095238615
2076 -1.630277600169123 3.9603571432288383 -0.7893597259018579
2035 -3.1215921852100683 -1.4055662699899238 0.7304228396065244
2036 2.840647079099767 0.6433024045363935 -0.7486835435508808
2433 1.5045997308665024 1.1820050152808161 0.8420130531069537
2434 -1.9015830028494627 1.9787484120406291 3.226817431641711
2473 2.0974663592667624 -1.9178498791911476 -1.9625531325781465
2039 -0.5420072761571945 -0.3490815934042586 -2.032132261890045
2437 2.838449317492158 2.540886759211059 -2.090509266440891
2477 -1.5947504221964208 -0.9854980553129646 -0.48155426844832494
2080 -2.3536655484726396 -1.3911233648960049 0.3608234589731783
2040 -4.290393742662639 -0.31300938641038106 -0.7940555354283227
2438 1.1599471222203086 1.4924994821389885 0.9483295097534731
2043 0.5815269083829269 -1.197451163030048 -2.441800625403608
2442 -3.9524670754617603 2.0721112322229116 -1.4544413159572995
2481 0.45556262851359763 -0.8671536000902282 -2.428427438084834
2084 -1.4638242027275459 1.8331473389123971 0.8373999873298987
2047 1.9663553620977354 -0.10054181467185083 -0.9548996882349093
2485 4.0784860480437946 -0.04435625085765543 0.8206756412957857
2088 3.030326193293572 -0.3636172027909329 0.9532493278465947
2446 2.304682757428021 -1.3371674338377453 -0.8597588331175741
2489 -4.065245905681204 1.84333259767932 0.34715351597327637
2051 -1.5545204276304734 -0.2919491475897014 -1.8795774638003007
2092 2.578557878433948 3.390890538010985 2.396855400439195
2450 0.28434614626490284 -4.815006518930524 1.199117157181196
2055 -1.0961802583461369 5.1696429369942285 2.080400186217818
2493 2.2635910088430706 1.8790767963766564 2.9352515814676945
2096 1.9740146632990172 -1.0940809230331134 0.8652303051806011
2454 2.860223723684358 0.3110260395234038 -2.2257642427498165
2059 2.936410318691352 -2.365288076575535 -2.3727498774554294
2458 -0.12055479189948481 1.4175815853255878 -0.8570467902493303
2497 -3.172380244276131 0.0840324822185182 0.9410430039525037
2063 -0.7612797211355665 -0.7815947957201702 1.8740798692556906
2100 -3.303287617803664 2.5839402983824513 1.0573659611910673
2501 0.20332512185491644 -4.356117609700865 1.7321530857293344
2104 3.641417487595916 -0.08578518872861712 -5.268411715471589
2462 -5.987128365633526 -1.4715350401624163 0.24963660085048459
2505 -1.7443108439144475 0.4323779680931845 2.2879991445769563
2067 0.15584993227271648 0.41249709134161305 -1.0621856979859565
2466 0.5306410524615925 -0.4150540141023996 -0.850446028219067
2071 2.2578882601994588 2.7829501985724607 -0.20291475608000759
2108 -4.239341176615376 6.784501904884143 4.129553319531587
2509 4.051703542173256 -1.0679149023525834 -2.3530010371151504
2112 2.7821850000327797 -2.0316017861804228 -0.813410577142919
2470 1.808950330936372 1.1997131908177756 -1.9515866637332269
2075 1.6883256464954235 3.9561270831467943 2.109957088747777
2116 -2.021821914269813 4.216576381244618 0.0092097967686566
2474 -1.7863105541588884 -0.18481532932856062 -0.013028613761604567
2513 -1.3009409609149345 -2.68636419177922 -1.2364459808436732
2079 0.37214739989301543 -3.6060496358371683 -3.7055242871985254
2517 1.9127418625740413 1.0426226739161113 -2.9870303632153887
2120 0.004701030198960385 -1.85473663783066 -3.605286368053467
2478 -7.480407209999914 0.10959474839382674 -0.6477543623595828
2083 2.397807484009524 1.378344246631716 0.8026609138350381
2123 -3.032408402818063 -1.882629309755902 0.9527394677935334
2482 -2.202301533309818 1.8495240386185197 -0.3165745970266682
2521 0.5912408398806495 -3.071799853883673 -0.6535896216974375
2522 -0.660089954408139 1.9005379260965818 -2.01708886461185
2087 -2.441592555952353 0.22943268488068552 -0.2516312325495613
2124 1.6913682190625172 -0.6888811536887205 -0.6181110270993303
2127 3.696240763663548 -0.4667504032389278 3.2082891483750426
2525 -5.456979297562591 1.6462107551670828 -0.9731269743733888
2128 -0.8920425101276064 -2.6728497486256586 0.3685496409747062
2486 1.6166434390142244 2.2506519645946246 -2.5070461721400785
2526 2.4515140895223437 2.167493338737338 -1.233043123614534
2529 2.0384836558493062 -2.963894382541257 -0.7195899874429516
2091 1.4033289328247491 -2.0167272622518304 -0.12779392147500085
2131 -2.166486511992924 -0.34495771114205265 -0.7660670715902117
2132 -1.6978971256666437 -1.4165938536722853 -1.4148472003758035
2490 -0.9058767147739913 -6.469093519561051 -0.4008625579169167
2530 -4.820511819611552 1.6530744915708033 -2.1380423076531376
2095 -1.1654272516733513 2.2584855471426253 1.7368690452154365
2135 -0.35283108800989404 4.367293861507943 3.248929523818741
2533 -2.9441921203264316 -1.2485963546346968 -1.1728674231547964
2136 1.1765174107427911 -0.5141983564050867 -0.6258346511357628
2494 0.3389762673241315 -0.5201892550199098 -2.221871684014343
2534 1.6091152516836629 -0.07918722448226768 -0.19613307068031688
2099 -0.20265093445802626 -0.371965965220425 2.2817493660751107
2139 2.8327238923044673 2.2444356731847153 -1.9102368603570867
2498 1.010382316468836 0.830462663921871 3.50234039436899
2537 6.598272245400999 -0.5249130575516032 -0.5569903171900112
2538 -0.32033728744571044 3.737109464014419 -0.5254052792036468
2103 3.0042124260955703 -0.3726192047862693 -2.6344075070424386
2140 -2.5842972503241857 3.216798156735154 -0.5237256628300563
2143 -1.7721674242503143 2.3764412172369527 -2.663687346993964
2541 1.6990066616048207 4.455703422534987 2.353215114002212
2144 -3.204054478153508 0.504920670844687 -0.31573967679246856
2502 0.941007525314205 1.6761004895872478 0.4666714671839771
2542 -3.113960197710061 -0.2261707182346716 -1.6752876215198143
2545 -4.02525514553109 -2.483804035210472 -0.48118596789522067
2107 -2.6880892636007014 -0.4031746294135625 0.25476838518833395
2147 2.396889187561955 -2.1208165658084632 1.8686481843806046
2506 -2.3574944036081757 -0.8397891737245892 1.2757408788707745
2546 1.6515179336900765 2.2523278201139103 1.61842806976288
2111 -2.6417136562101446 -0.1967810335221359 -3.8805286544884994
2148 1.9013572594446 -1.2078304240260642 0.26933803985803473
2151 0.14298573150787453 -3.198554101225212 -1.8056251921584683
2549 -1.0694823434970469 5.681550325871274 1.5892002948902535
2152 -4.741412828437268 -0.629731409527099 1.5171525625132067
2510 0.5052999041790576 -2.2119320744056234 -2.5684655625337864
2550 -4.00558402456739 -0.7822262998778857 -2.447795786418757
2115 -1.0482619702939826 -1.8963776244580077 -2.446051455049595
2155 -0.7131874573663372 0.4494186041069617 2.6599757902747854
2156 -1.525552756294721 1.4151911599929206 -1.2840613009039301
2514 2.1009531081998576 1.0432177486828238 -1.0078565150939511
2553 -5.517943331939971 -1.2144045506637569 -4.562000289803111
2554 -0.47662502368283005 -0.3285239927176872 -0.19463798695480103
2119 -1.7651146666679265 -3.915607777997654 0.6195924549360876
2159 1.516416560918848 -4.72148083333024 3.6534976513382778
2557 -1.6209106392112549 0.6362912004788013 1.7204247870100655
2160 -1.0266619589724637 3.1284262232908575 0.5945288137624
2518 2.6238086599042014 1.9339766650474097 -3.26590757621865
2558 2.283681351933504 0.8132443046749694 -3.1965463007753074
2163 2.577469745241602 2.7007523441074874 2.5918097787574315
2561 1.1545587249504394 -0.9779351290219251 -0.9594519467921107
2562 0.39994382957329117 -0.056429170571112505 -3.7207589094533913
2164 2.728874335415103 -3.21304769645484 2.0119926376382313
2565 -2.747354485056312 -0.9543011781849551 0.8781633524973422
2167 -0.4416140332104457 0.06268886186502122 -1.6946815535551385
2168 2.7136063177270557 -0.17566162449585146 2.2962883912812497
2566 -0.018882132673452685 5.76682150630582 -2.2618666144930017
2569 3.29632841805317 -4.62300551552901 0.8051872952348541
2171 -2.381209877719849 1.859818563041379 -3.4704308687711287
2570 0.7469601797674736 1.8322954739263086 -2.210482999258486
2172 3.2520792312846925 0.3555165626761943 -4.550199343700231
2175 0.21347302218745293 2.848556904992442 -0.864975140597984
2573 1.3378769950411193 1.772338207398195 2.2579181630644807
2176 2.744753083672245 -0.7166077156923091 0.48189103302670466
2574 -1.329454104465001 -1.3543373687382254 -0.7985991647267042
2179 -1.1979904584748406 -4.520052611596225 4.638812153786714
2577 1.51271903335814 -1.3400878931352274 -3.2177110228548895
2578 1.5003038365279109 -3.0768263284382087 0.641498923068185
2180 1.3061660359042844 -1.7116015091780261 -1.4590140673431564
2183 2.7181239800152923 -6.49759018841287 -3.124169033476115
2581 -2.589709865724236 0.7150236829039512 0.36554744112303417
2184 -0.7107252125930239 -0.7128351348278534 0.8177557278408595
2582 -3.554784684690835 1.7259677913276907 2.5018115855111356
2585 -0.9290772270640341 -4.507142051325719 -2.21967326206715
2187 4.238755567121504 0.44660682404617563 -2.1213907407149266
2586 3.3403633370333834 0.43762404240906094 1.4482032508389762
2188 3.9743630234114855 2.9430198038875783 -4.343987522677186
2191 -1.9542702634439215 -1.2449588504336824 1.7826079112680377
2589 2.3287984737628435 0.726189742214554 -1.2283265092843072
2192 -1.5308791598362514 -0.7657584063440704 6.826891532746247
2590 -1.3621390477244322 1.6000674602597764 -0.35432981829583626
2195 -1.6901878255494973 0.29028333103470766 -2.6575519485721566
2196 -1.352238171097219 -1.8482062392209224 -2.008563596040664
2593 2.2973740403415737 -0.9513872060167482 1.0624965817617777
2594 2.2477234832395006 -0.9508298142177997 -0.7574323563791113
2199 0.46844627225802865 -3.1398154583509723 3.131214945128636
2597 1.5165751205974516 2.61141121350898 1.364589162558169
2200 -1.4810354113132378 4.676534163006552 0.7849410752218571
2598 -1.0903770381271718 0.6037143480964113 -0.4163860955442227
2203 -1.8220745698901333 2.1026218791863216 0.43897633118177753
2641 -0.8073417370923645 -1.7539182956319979 2.9695995914795525
2601 3.8111638259715663 5.232288516866153 -2.953876024014098
2602 0.4253874791887644 -3.673462222942458 -3.166055452552874
2204 -1.99391508123519 -0.07299324117660781 1.8919227983832954
2207 -2.5733590252134517 0.3995402651081221 -0.6554019391067265
2244 1.188822839064778 1.218768714485536 0.009388470706502339
2645 1.6914000276952925 -0.44436018278012246 0.3849283367475553
2605 -1.1808821420941888 -0.048290618836159274 2.980743061251061
2208 1.128369917062192 3.4568363559985382 4.578878821976584
2248 0.04463381069492035 -0.8779697405907986 2.722017565556891
2649 -3.8561074065687815 -0.20933458647797892 -3.2957343520930484
2606 0.5131434540087777 0.05436194696100284 -1.8299939825930835
2609 -1.519506617259057 4.880163413111003 -0.40992810777345823
2211 3.271385787968713 -0.39656504648126656 0.665468827692963
2212 -1.982983844744644 1.2990420959240605 2.205941666705328
2252 4.07808744143779 0.7517958380747504 0.21651279797529718
2610 0.6068825853072108 2.860586470313849 -1.8199785807307638
2215 2.435917389307829 -0.1112251988624386 6.963090423488236
2653 -4.579268349327379 2.442146162458138 1.7856212414045451
2613 3.9406089729966336 -0.36169608308897355 -2.4074195122941813
2216 2.826343179749314 1.755059749661599 0.18782696823235928
2256 -1.451419129517168 -1.7638588147495429 1.503699860785785
2614 -3.557715995019669 -2.406602132210889 0.09086162932724556
2219 0.21589064342358646 -0.5073064051014383 2.1167819705448077
2657 -0.9097415987774444 3.5126265800381407 -0.4925573648098614
2617 -1.9032522523619206 3.1857842592599552 -3.181857256057067
2618 -0.45695892625607454 2.9348072652814925 1.1052493043724982
2220 1.2819515078672221 0.8867629131512181 2.524780763219952
2223 2.775758039012449 -0.8538886634881845 -2.556174032964264
2260 1.0655056790056716 2.0380894986667726 -2.200735908799571
2661 -0.7705685188154924 -0.7896673854465608 -0.9671522208267983
2621 -1.3414749117874794 -2.820939137184077 2.2798534887101134
2224 -1.9077921885067854 -4.674618664870949 0.9821690994797797
2264 -2.811779528473801 -1.7681513178832324 -5.5344264109973835
2625 -1.3672543920598703 1.6800685510190685 3.7843809783703017
2665 4.042733187955024 -1.7848949331504487 0.9606111963098816
2622 2.347984629162795 -2.147205594533928 0.19188249118127457
2227 -4.248500140804605 0.9959021560587301 4.010059969603108
2626 4.266415374871638 -0.6165532131793303 -1.4545283862679164
2228 0.8773658350414466 -0.04106430863639698 -2.2916679646035427
2231 0.06231376024438138 5.542141750114747 2.334334615664638
2268 -2.4526688390375284 2.025032802498559 3.055382665570788
2629 -2.6574074669877747 1.3716464857180104 -0.2674470035352588
2669 -0.380101498937892 2.38629132374998 -1.556555046968042
2232 -1.6414361950683685 -3.8938256329436483 0.4357641319455689
2272 1.1676550600107334 -1.8388298882778347 -2.4091255934804376
2630 2.738051640169072 0.29619055643900366 2.8198478825257234
2235 -2.4174264153499174 -2.1294809934230514 1.1440249570666832
2236 -1.3993188268306762 -0.513530608372808 -1.349292441470465
2276 -0.4429175537128921 0.8279995678695482 -1.1950443294194701
2633 0.057129159011174345 2.953763671361806 -0.6119976571105061
2634 0.5486168839248647 2.567445966742595 2.2617443934617203
2673 4.209564202649487 0.5454450957778595 -2.5883989147339976
2239 2.0320085986012324 -1.2633882410599515 -0.041086391974499724
2637 -0.38288765116208257 -0.050194134300331004 -0.9647509990725254
2677 -4.494952318528453 1.0374188258026904 1.0203893476720973
2240 0.1286639080350113 2.408398076447771 1.6605078331602552
2280 0.9914746118585827 -1.040658052927762 2.949998070727232
2638 0.2599694940871484 0.984688567494386 -0.37815512248733124
2243 0.3532651760221668 -0.6997612490190459 -3.0556292650006216
2642 0.44662463396180335 3.445103305660611 1.9302822895524663
2681 5.404914123698339 2.2688844870667166 0.1044627979743109
2247 1.0099055722403036 -0.1911095895554852 0.6438340755431742
2284 2.0889290623447043 -0.5007590920517132 -2.5306065046258186
2685 0.43855724792653633 4.603786040573546 0.3694841943292622
2689 -0.13127669803592928 -1.4073225457410758 -0.42223729689124284
2288 3.6284326633698973 -3.5926743982531577 0.4204626821572615
2646 0.014521078301984462 1.6987746488388284 -0.6078198004541799
2251 1.9258127596920447 -2.2200646521732974 1.4211179265559097
2292 -3.9815370573837607 -1.5061311590759041 0.20740499399700815
2650 -2.359178527250201 -1.1420060346657381 -3.749135059249667
2693 -0.061245769786326086 0.7658997906945243 -0.4659671829932407
2255 2.470406537647458 -0.9937438799405665 -0.3615504605784719
2296 -0.3896515258090032 5.694264744263 0.9323772515202745
2654 2.599293818444396 -4.696801670669734 1.4341569659539362
2697 0.40630420374805887 -0.4691541218356391 0.6212781833470091
2259 -0.5071738401455884 -2.521465673637442 0.8131421119041738
2658 -4.872892428419077 1.2078711743754331 -0.5662608955361088
2701 2.8162724750895243 1.2974705230833201 0.1761316701326084
2263 -0.5652004814915642 1.8702459321744058 2.723194302641375
2300 -2.521389021847281 -0.1839461245845564 2.467858114656486
2705 -1.7692996717293574 -3.865131462364567 -0.39641868610123654
2304 0.9951067855783825 -4.294774557315412 -1.680074623684552
2662 -0.8474771144585035 5.965458301438444 -2.4173717155866057
2267 -2.923332581155 -1.1707740339891874 -2.861588016397944
2666 -2.722519206553107 -3.732492278242056 -4.802399205194506
2308 2.1366989039270354 2.42802220039577 -0.7272050344537736
2709 0.939215222361892 4.144821603554552 -0.5238302365828257
2271 -1.5937530825582935 -2.549760645647653 -1.270514769276159
2312 -0.11873869870832068 3.0586838875366453 0.34247113485641945
2670 0.6484127858244692 -1.1254119965908076 -4.542003021039897
2316 -1.6152285526478576 3.3698344506172044 -0.9657675912551564
2713 -0.6071859666359181 -0.06370294487402178 1.9759748577367011
2275 -1.3018159066995219 0.37341717914999234 1.9496974080500213
2674 -1.9567220059845778 0.9007020445434003 -0.4609150484620324
2717 4.185771538800989 -0.5159447060402429 -1.1970727887597916
2279 2.5480508668655983 0.4736023968919444 -1.081764423058028
2320 -0.8048960101993914 -0.36874918498124815 -1.7504445970669178
2678 -2.558910510550672 0.8849302215558555 -0.2049744202805494
2323 1.7579983934004455 2.47999159436897 0.12397499899847503
2283 -1.4604153510727247 3.323875974215469 -0.9025903958029011
2721 -0.4273836115237793 -1.9089377931239924 0.13475979504988456
2722 2.9801653368760155 2.7579584432979742 3.121230937872672
2682 0.6017924210075003 2.3970856767519724 -2.265434321872428
2324 -2.3796796409107848 0.6082949886807931 2.1030552034410803
2327 0.1041512290990925 -0.8222666625987473 1.115167733529795
2287 -4.860043153476934 1.6968402067422834 1.087328948404768
2725 -1.288741171257741 -4.110083166902236 -0.052793126395591146
2328 0.028903674014574696 2.4712241793737837 -3.0786857809942845
2726 2.28734839749285 -3.9756597206590674 -1.520256493782177
2729 1.6687068336363693 1.8031889575789715 1.3466377859189982
2686 0.014891111380196836 -1.6818035426426374 0.20150368492204732
2331 -1.4034263993718272 3.096928868627601 2.1227684308680925
2332 -0.35414506019168057 -2.1011110259983443 -1.7374418087307495
2690 -1.592703937247265 -6.213077139496312 2.693074166010615
2291 -3.2385929085316914 1.2717205023875342 -0.20231163609487407
2730 -0.4496040353281588 -4.162199317465981 -1.8397809958959952
2335 0.43849997586085326 2.3388723584858297 1.4805637654471038
2295 -0.6759510370253222 -2.01460420941925 3.1410918321591113
2733 -2.072708731653908 -0.9912290074585505 -1.757592610765675
2336 4.200588966706696 5.422331666770134 2.404081741371645
2694 1.865563738704692 0.06710719215824282 -0.4578847461988701
2734 1.8448752548633323 -2.1023013175559564 0.3819975945098107
2698 -1.1670686503074432 1.0589039235939266 1.7229149628503149
2299 1.6419398458998813 -2.5965771052314066 0.27099360621480884
2339 1.8375974425047092 -2.5402028569990933 1.2089518972961855
2737 0.3901315113019134 -1.3078263766581602 -3.0700723275804918
2738 0.8183645245434619 -1.6659495223433936 1.8975655104370501
2303 -0.2770141878473263 -0.9408176482411418 0.6886705069184119
2340 -3.899351435688274 3.2691234157851015 1.422753666123699
2343 0.1940129059238107 -3.332093405131819 -2.143832940189677
2741 0.7579789007741083 -2.408471985562838 3.121693273260556
2702 3.341423403160349 0.557634989917866 1.8519175664689524
2344 -1.1433396397605562 -4.099291056232656 -1.3972972491138627
2742 -0.7326279988366852 2.458469714945271 -1.3246455174120488
2745 0.03191053123907102 -0.36841980337520647 -2.056027481097468
2307 -0.7800089073035522 -3.2158593651886296 0.1918043470962281
2706 -0.7365194126666218 2.15943499995185 0.7867571352429991
2347 -1.7642405997549364 -0.8181759539259743 -0.2472321376587333
2746 1.8353156173524645 3.163220983460659 3.2575865187750996
2311 1.6308090991347444 -0.5249515220896106 -1.3077004607628289
2348 3.317050461820663 -2.165899792248659 -0.7203674725730421
2351 -4.522775229186697 1.1559696169083185 -1.2014642974254728
2749 -0.23815170391619195 -0.49117329898235734 0.03550887898438368
2710 -0.9145958214824568 -0.02221663790467263 0.8775051889384368
2352 -2.2857912028229865 1.4437585079114446 0.6917167178250204
2750 3.970933519085056 -2.4657065828669955 -1.049444364569309
2315 -0.12999769685553006 -0.9944532705976217 1.6043837702039774
2714 0.758152191488722 1.4569587455250803 0.08887598345950198
2355 -2.7000969593928166 0.8790470646404973 -0.8192390166768799
2356 0.6823726066280328 -1.742773340205172 -0.027781723075436113
2753 0.5355214102739392 -5.335990463150594 2.3717971169608
2754 -0.2625642592329391 0.5756304854657818 -2.1478502074259684
2319 -0.6108212254626899 1.3359392158163879 1.5721013365256795
2359 -3.9354534536075603 -3.4844661889939674 -0.18810684207147405
2757 -2.00243998207295 1.3955227050104089 1.0149183468643106
2718 -2.0135033245288856 -0.7411663454752897 -2.5661120800599804
2360 1.385366585711743 1.9617916969955325 -1.634382465692309
2758 -2.2798996448201057 1.168500245652221 6.414603997048679
2363 4.801259638290178 0.018458962617639692 0.38351960328062196
2761 -0.2553873188674181 0.8781571944292161 -0.5605696806796192
2762 -1.6570802643206803 -1.5333777396562394 -0.3329993874535746
2364 1.7990644592444685 -1.9450110057241659 2.8458385669748467
2367 -1.4375603526429335 -2.701094231880401 1.9276856576495978
2765 2.0695142717373045 1.4138019035446683 4.273315150850389
2368 -0.4236804697975376 -2.9596516535489013 2.3665259043840954
2766 -2.8363310007367812 -0.7936529385095027 -3.7164575931889745
2769 -0.02414603586400887 -2.377356908576354 -0.05258180991593852
2371 -2.656915523448678 -1.8900070831834253 0.16037985612487873
2372 3.1792846872621547 -2.0209022822352636 -0.13869162326711723
2770 1.0860468770629597 -2.770028307785987 2.7088454557988384
2375 -3.0493176661490193 -0.20807630184152284 0.23597002934759262
2773 -0.23031624204131518 -5.175496938463276 2.5389515355358965
2376 1.0893680231348455 2.6990021495340377 0.4601243269223284
2774 -3.2556202424159895 -1.6180840469637405 1.2835660171662082
2379 0.2972267811267991 0.9952457514411097 0.48098206845805264
2777 1.6942829245276305 1.477352458032 -3.235658122909545
2778 -0.6152231970973328 3.0527515907438194 2.428435561936295
2380 3.095423990774123 -2.3298870879962013 3.909423860982304
2383 0.43810373074124326 2.397274033608041 5.127000136665589
2781 2.0109939146593656 -3.574904519049901 3.9927466628120327
2384 -0.4913910063044864 2.4519286742806505 3.1825799901749052
2782 -2.009020969658671 -0.3896165955989903 -3.2805438351930185
2785 -4.1182436035049665 -1.1124004200808875 0.3415437273824202
2387 -2.4657589928303154 -7.116683140640021 1.915204843898951
2786 0.37880765707491404 -1.398221486924633 -2.88605815555021
2388 2.588185914005202 -3.990672561097932 0.4781161045743664
2391 -1.6501966486121582 2.502174206162769 3.161439428882896
2789 -0.8183780421424158 -2.329450314864652 -2.605128874595106
2392 2.8959262764735434 -3.9545055717859947 3.935887459952277
2790 1.0395652708497216 -2.1488035436117383 -3.346459219470853
2395 -0.014660291020941617 -0.6175150756348353 -4.385625877176364
2396 -0.06524801082610937 -0.6199408668133588 2.2802356477606653
2793 2.666691664476279 1.8219268353391407 -1.9172529559167795
2794 2.5358238140167875 -0.7431892046564273 -0.541605071103551
2399 1.3823940346721526 -2.488007489581283 0.28899416949481277
2797 -1.2749635596274378 2.6618607280611264 1.1370810693538498
2400 -0.11510304847045884 -3.089136015849689 -0.6663114395980444
2798 -2.2136205464818786 1.1932638255981491 4.261232726398349
2403 0.22094763164711428 0.7128644333665684 3.0575573590094827
2444 1.8582148786655213 1.4232004843115893 -0.0716793754906793
2404 -1.5653749019281145 1.351264760993616 1.1758803444422645
2407 2.266207524158073 -1.5936660647172465 1.7919897997547842
2448 2.84182061441891 0.47982104794931646 -1.5144086615211654
2408 -0.9783358649534986 -0.7668646244817298 -2.543208004549785
2452 0.8876255899026327 3.7804856466167416 1.768937237100654
2411 -1.5267775783097772 3.512142930164609 -2.4339438442591232
2412 -3.2128759239739444 -7.254373077382839 -1.7784399119185461
2415 -2.518272777862804 -2.1197588937889607 4.1165533681319815
2456 1.237341530425 3.260019306061755 0.13654786327423005
2416 1.3128365861517446 1.6246854498571288 -1.8790347356205366
2419 1.0008898820485324 1.8678808786397518 -2.196412433163704
2460 -0.44527295976557907 -4.966304500489617 -0.9696873549791839
2420 -3.426113838627968 -0.9107137734142727 2.2962725910021238
2423 -0.4264224643254987 -4.098739813000886 1.7265321943466232
2464 2.6788293787275346 -1.2787344211351157 4.61201077482176
2424 -3.330851051657521 -1.600198260478358 0.36214220147053816
2427 -2.5133821732063217 0.8277011430845894 2.373449914305402
2428 -3.1499778412983503 -1.3058137779119263 1.9786475617365744
2431 -4.045769964001211 -3.762971579303532 1.2019065387687902
2468 3.8195050709410454 1.4321737953527942 -0.08543477954886998
2432 -3.6261120315203716 1.0844792434869763 1.328420715078865
2472 -1.100489808640084 -1.0925968649428976 1.0888596318202737
2435 1.4408339577185583 2.464854642120938 -1.5872528126351708
2436 1.5458819714315344 2.2955531375384086 -0.8588638720268892
2476 -0.7271321088502989 1.2329209094086777 -0.8273757000823719
2439 1.3279686767606012 -2.029758486519666 -2.499648757580561
2440 -4.342764042049671 -4.941366740578343 0.4419398868310267
2480 2.3608096182018787 2.5270270288464762 4.745658875485534
2443 -0.7928771905537494 -1.7950621819024253 2.378668979004452
2447 -3.0253980731392303 1.9920973121373022 2.866300436497895
2484 -0.5131780601490856 -0.6177878772537903 -0.47685422551491424
2488 -1.9367271089237221 -0.2828847939404883 -2.0509183985367248
2451 -3.183987055630032 0.895785266022538 -0.6218649149966303
2492 0.86608891809706 -1.7907063485875094 2.120982922826154
2455 -2.2477818305815154 0.7703161412827919 4.298353150816694
2496 1.4776408081939352 1.2380179011780683 1.837389204342477
2459 0.5186681153159226 -2.4597285928769117 3.0709311804795023
2463 -3.299457376869128 -1.8029674994549691 0.48925247917347314
2500 -2.393375645563705 0.04805567823644986 6.223740389297768
2504 3.4975571807254253 1.0578770330317457 -1.2954118618840507
2467 3.654963301825456 -0.8231899862994937 0.8013459856770666
2471 -0.08407046341434173 -0.9878470830261842 -1.3267066580863833
2508 -0.31499725274016227 -7.13688832747163 0.20168201077139425
2512 -5.686226354282449 -2.9066640308545013 -1.5916377072255319
2475 -7.426934816443355 -3.5347117789272007 3.195690905655026
2516 0.6488945047845196 -1.9096950572859797 -0.5979064628248153
2479 0.6164309867794272 0.1833129609504468 -0.15913021641550926
2520 2.6392673830492748 0.5159123472118464 -3.116609452298076
2483 2.5029165711678485 -0.14220620455410535 -5.823962711993023
2523 1.279799895313061 1.7569682289107276 2.07168064414579
2487 2.738959384251092 -3.724787398111599 2.094712528108555
2524 -0.8565609635473536 -1.0156167765069113 -4.565411279007596
2527 -4.085739892583171 4.133204628347052 -0.39808314085423074
2528 1.7815212057352163 0.6832510166709517 0.5323511463090088
2491 1.8602727400643648 0.801438216879771 -3.577616347891097
2531 0.4736718360836714 -2.849416078852971 -4.9039622737425494
2532 4.0493341116494745 -0.3085008535047499 -1.5606227487502458
2495 0.6168266094558463 2.532712273350612 -1.0550021512432646
2535 0.1657680277638111 -1.4574637385730458 -3.03781772861253
2536 -3.6049139471287828 2.059139190822331 0.43445196295878724
2499 3.1439712222077514 -7.5276632502881355 -4.527555464232352
2539 -1.652113259164981 0.09627683245428924 -2.0333354834512467
2503 0.3671425619367071 -0.09052551665200116 -0.7689679732686909
2540 0.44876508928594766 -3.713919106255898 -2.594661744887062
2543 0.7245230476810299 0.8087746143007108 -4.302249582527378
2544 1.636534739970502 -3.0706869108989876 -3.034005467515748
2507 -3.9090136403859703 -1.7571373065871188 0.19845902966447765
2547 1.052048052690373 -0.9683833974642305 -3.8743195832688144
2511 -1.2292692355280512 -3.1656759799323764 1.0694600376245054
2548 -1.0350632666590016 -3.7430330506808227 -1.0977880844503962
2551 1.0152381314755565 -0.7618234374634258 1.5687090311850473
2552 -0.8284927827320822 -0.7973999898650365 -1.4320461163891718
2515 -0.19159454785710686 0.7292130377675135 -1.3351067409177018
2555 4.764951523155665 -2.7982509100684814 -1.3811905874217583
2556 -0.22482502066415874 4.851850079139049 1.1631589391665342
2519 -2.4406967029570814 0.4488342402036247 2.0488163104247583
2559 -2.114980084953165 -0.1775705098846015 0.02414734133525236
2560 1.0414178308881747 1.9806451490148416 0.7226669332899538
2563 -1.5937390133121014 0.7326292280367577 1.2574449767554399
2564 0.22007691088962486 2.7983544373619518 -1.6248888431956336
2567 -3.2468396973152314 -2.0520289123621875 -3.507682792819727
2568 -3.481684339191004 1.2834118965704397 1.634979625597176
2571 -0.8620410090901551 0.9831532173209337 3.273645307258807
2572 0.005731213173396877 -2.80212180716426 3.052105349177081
2575 -1.091814355853037 -2.434686593177885 -0.03822481106403053
2576 -2.290718228770979 3.4606564814306893 2.712850222590795
2579 4.09107030570534 -1.1816342711060241 1.5175268630389314
2580 -3.591929906735303 2.870598960137339 0.609959617726953
2583 -5.738375004008983 -1.2350628509325448 6.621292538265228
2584 -1.5789617409339518 -3.4192066352810313 1.5484744683518519
2587 -2.902769751572517 2.160442511013448 1.806087540890547
2588 1.761027374886801 0.1591022590015855 -0.9457343853154191
2591 1.2157344286796694 0.452621068266419 0.7646380856403581
2592 2.152691763507468 -2.0398958677187684 -0.3232991438209248
2595 -0.3915072684754478 -0.36080385786773705 1.167745283147941
2596 -2.4311006098734853 0.861169652983753 -3.4888117598264325
2599 1.8483350334762672 -0.013648370631760052 -0.40735602335248616
2600 1.8333233744585864 -1.388118438428218 -1.3805486563384655
2603 2.1780669521150533 3.993095957203042 0.3776793567834686
2644 -2.6952872472178844 0.6108030841899897 -4.09375690849712
2604 1.8890846908897991 -1.0669544076439101 0.6923007786899411
2607 -0.06195068305358751 -3.253548517508729 -2.8065136761294682
2648 3.191390116206809 2.720614573784769 -2.1003383533621403
2608 0.8731400327998061 -5.030909015227623 -2.977604946367836
2652 1.1056977747578915 -1.825294672837274 -0.19177931161914957
2611 1.743752164093286 1.8841184243189253 -0.03902973704232361
2612 2.145576020446204 -1.6896021200549287 -0.11395691186282143
2615 -2.695242001691901 -3.039219503905277 1.1907664458031342
2656 -1.5991797267114753 0.09167619818274024 -0.3411353377285915
2616 -4.890348792923796 2.8383244281744333 3.7598075661151187
2619 -1.6100676905747284 3.317115805515967 1.449026552862383
2660 -3.6133540773820307 -1.2419814659590596 -1.8506048260623857
2620 0.23576682303599844 -4.1416350531254755 0.20343949239826303
2623 -0.13362120090860927 4.241835235194582 -0.09190830716232991
2664 2.5742559726994183 -0.021466328097260092 -4.725904578547448
2624 -1.0281165869519258 -2.305472911001996 -0.7498980048912894
2627 1.2722545359287238 -0.8143455217909524 0.19844827096897602
2628 0.950627617322921 -0.44081207583165105 -0.595617898995457
2631 1.1433886870156313 2.5102889706857265 -0.6132521956823362
2668 0.251827956447496 -0.2652181797701765 0.6432446461515114
2632 -4.124892647655491 0.42538439645568066 -3.2982426594292025
2672 -0.20719495846751554 0.259554701279166 4.1674183213811675
2635 0.6066372961327217 4.5989624027449665 1.1990113245828238
2636 2.1974260858106693 -1.033106226809555 -0.26094414956903567
2676 1.563733072311119 -0.3431481196344587 3.482643042845679
2639 0.18141459605561192 1.0155039179388305 -0.40601794639676103
2640 0.5299746878341344 1.4034941291133147 0.31982522439672584
2680 -0.28426500354874756 0.9459134832607042 0.383035748151152
2643 -1.8427777227351645 0.8051433159179306 -0.8294309890969015
2647 3.3945208590082796 0.052008025960854874 3.4242642220080017
2684 1.7545226504846776 -1.8865590330202093 -2.6302064480798677
2688 -2.447145658895637 -3.023376045191295 -0.773947162832759
2692 0.6014202134003841 -5.978809122534545 -3.3648677560209888
2651 -5.465654816801281 -0.2275071449282257 -2.1512111816665587
2655 -0.7124424122016455 0.18444121764092722 0.3940887800512511
2696 -1.6880728270381284 -2.2872114868834794 -3.5638309232610763
2659 -0.6178398758035794 0.6808237815826585 -1.0339882487747905
2700 1.476212018674206 2.3155471644753822 -0.8809996309380782
2663 -0.3660950040490943 1.525351618728087 -2.0672225686241275
2704 -3.3413541703539313 2.4129175573335213 -2.3470454385417963
2667 1.0494195872212835 -0.38970176725372163 -1.864226312529578
2708 0.7425141234760881 0.42412451198803053 0.17821534177091242
2671 -1.5814717145386943 -1.4225111461753404 2.5048086363319504
2712 1.5514014434243963 1.380111384118249 0.7490503598270035
2716 -3.600102145109868 -2.819991864649811 -0.9109762970632769
2675 -0.14697023835522963 2.1763090417449726 2.3523284605094603
2679 -3.749270579893961 -1.4494610612761005 0.6229644513936352
2720 1.738759963047014 -2.5259699217342804 -2.67923360529595
2723 1.7652343852493118 0.2640782046358054 -4.0043242727095425
2683 -1.680136739329526 -0.1055198396100338 -0.007941828993995545
2724 -2.645783594392305 1.2176680718878017 0.966441056971282
2727 -5.1466236514086665 -0.28637242572856936 -3.5286137608270276
2687 0.6081315207905071 -4.525373250949905 2.8826739339822507
2728 -1.3372878379814934 -0.898799841845672 -0.40740360465388303
2691 0.9942672263698397 -2.673082017198967 -3.99112797023929
2731 -0.5612937234951181 1.3867551262844857 -2.3224326919477036
2732 -1.7217640237400407 0.35970625654293414 0.09763776127946207
2695 0.40020791080916107 -4.2765172785012595 1.9711449008219841
2735 -3.345371020886098 2.2596831243138413 -3.363673827136166
2736 -0.9688125480288755 2.2555264263122723 0.8713321930840946
2699 -0.12485875265658099 3.2034680297769187 2.326764703111173
2739 2.3037387958802142 -2.2371654324424397 -1.2020643248780887
2703 2.6671355358665974 1.588314330080817 -3.09860418965511
2740 -3.072614385687428 -1.5666376064482082 1.7757062563531116
2743 -0.7392531738284921 1.899500392784397 1.1612556289507323
2744 2.714387138356384 2.182674906091607 1.9399957440281024
2707 1.3654174177453846 0.7569790111197423 -0.5031205715178347
2747 3.3652477460657253 -0.1846767372147373 2.102109775558251
2711 0.6676047397679866 0.5187927085888882 0.47452468868276654
2748 3.0115642215491403 5.301582236732383 2.970323595812872
2751 0.0008051442132178226 -1.3028440381813573 0.2587066776441809
2752 -1.4899760682892267 0.7135926530759956 -3.0690059911297696
2715 2.634760040584633 0.7757446085760439 -5.247945158281349
2755 -0.20356153085922082 -3.5045134875111232 3.901590721672732
2756 -1.2292506404006023 2.8743306160043347 1.63633130848991
2719 1.193596916086585 -5.4378839320401084 2.8156306933564044
2759 2.2907275244143466 2.4510766268786828 2.229078770530796
2760 0.9642185513392008 -0.22298904321160326 1.2985034073534854
2763 -1.8099187378891162 -0.4950226739644734 4.155976976997094
2764 -1.1607271318310408 0.6781085283840869 -1.172348386774028
2767 -0.8837557209857629 -1.7365838109505303 0.37943250320997346
2768 0.45966154300009127 -1.1641845344890238 -2.7184918418403385
2771 -0.0531112338659224 0.33687708219219265 1.1956207595576767
2772 -2.476985560036559 1.9394866614981672 0.8107097293657896
2775 -2.8763263904859566 4.400777284296142 0.27989577158859275
2776 2.2860323024816416 -1.1209144093984633 1.4995424728602775
2779 2.72028314255339 2.558908418984813 -2.238095407008908
2780 1.586185814808902 -2.914018387450676 1.157683502845606
2783 -3.2286213396909362 -0.8491634677834552 4.999270481708612
2784 2.540086696967583 -1.9707225251567686 1.3952165327921136
2787 -2.7932834605364882 -0.649804881690615 -0.7987314934927313
2788 0.3714644075372614 0.7346520761140999 -2.564850293435918
2791 3.97152378107137 -0.1356041396386866 2.051839254675006
2792 1.0913659592353346 -1.9630286842230371 -0.8337361547630607
2795 -3.777944574587163 2.8487090357758937 0.08118869996601466
2796 2.5491962817489786 -3.1906530753302196 2.8964533604016345
2799 -0.6852096459371694 -2.0572874307737816 -1.7118070080062606
2800 0.31033710098930434 1.1659697219799086 0.8015197046943547
2841 -1.3084533378671919 2.9408269492919263 0.09697514280044693
2801 0.638686687360368 0.2054844530685373 -2.7840064218613576
2802 -0.7621541462910557 1.2441256696814256 -0.09902075968693229
2803 -0.2423998770560867 1.1514485322433765 -3.2036769663813716
2844 -0.4592526735950099 0.9517763551558611 -2.338674936635773
2845 -3.148647411515586 0.186994822154469 -0.621302803325427
2804 0.7954869699427495 7.389476583237263 2.895591600868286
2805 1.5869575000885017 2.3657605639043835 -0.5432746063492421
2807 0.1684583450378899 -2.737970432013385 -1.0790673479623265
2848 -1.084754638631015 2.147737250768103 -1.6987867042835878
2849 1.5949360238566863 -1.2861996694101796 -0.6015673630914387
2806 -2.5813757161138735 -0.1757887559737029 -0.8908227690093959
2808 2.776322189587476 -2.0821838620544093 1.720743585712056
2809 -0.9172058362591883 2.089993969215259 0.9130880104393362
2852 2.477391238900776 2.396901513298146 -0.5069354947032244
2810 -0.6869839229772643 5.106201881566191 4.387531316698976
2811 3.6633408509729914 2.3249302957634876 -0.36214417898591583
2812 -0.5596123312038749 2.132690571385821 -1.5116093258025964
2853 -0.11721130039935228 1.9634670914433443 1.7452473675658862
2813 -1.0262410471425145 -0.505825549846183 1.9580483922898693
2815 1.1379306854422815 0.8741792714371449 -0.1545448767714209
2856 0.6850828766286893 -1.553442975096686 4.361336096999229
2814 0.0796909006567669 -1.2107141986115573 0.5292307499685827
2816 1.778974618689188 1.2737511721270394 -1.1988510841516151
2817 -2.516508836710213 0.7272453660290232 1.3354876201253127
2818 0.702319593151674 0.502633520978341 2.3703378570803055
2819 -0.8432904565359253 -2.4951325816381975 -0.7730583548822504
2857 -0.1263223307753323 3.418732849205358 0.020975206158979017
2820 2.640200313000845 -0.9492202067583032 1.1257535691723017
2821 -1.431951277970668 1.4738999427372068 2.054361894171901
2823 0.7589295325885056 -0.3452200462549381 3.647431705458845
2860 -4.40276324287812 -0.04073420933820438 -0.9944683690496074
2861 -2.761507005440754 -1.8312165816835388 1.2153525487079795
2822 -1.6848685346414292 1.3788735824366374 1.8853630218152269
2824 3.709176256335243 -2.242426672035126 2.6589057318886105
2825 -2.3477070983318455 -0.10200090939911326 0.4648036448295232
2864 -4.800801470289281 -0.8157212645934845 -0.6157373492660987
2865 2.7520526355835733 -1.6208199797979 -0.7148173057372554
2826 -0.2665501647209547 -1.8431452572506344 -0.3310060875312119
2827 -0.5838473099217046 -3.3498817686000817 -3.028929435107932
2828 1.4023825795124278 0.3173378282659098 0.5922524099123992
2829 0.8992170187258762 -1.2822486651033267 -1.5093643787401694
2831 0.7779855625897082 1.1334661992224588 3.61422586912113
2868 -2.780433173811531 -0.6991841140513173 1.69622603572833
2869 -1.913983663378847 -1.5245730594217084 -0.2537739097916196
2830 0.996873080995283 -2.8708908741944508 1.8693085364558706
2832 1.1164919867338077 5.420781410331608 1.9305575593506652
2872 -2.1760390472572566 2.3448377574959154 -0.9755691912483823
2833 4.298582815424186 -4.565852513395723 1.171640119493475
2834 1.040707629634659 -2.981349972972092 4.441524295619225
2835 2.63008754009806 -0.20182958304032833 -0.4288053288932486
2836 4.549061414707898 1.234247160477078 -0.6972110484167263
2873 -0.4624674906378094 1.7811334835432342 -4.749253925469072
2876 3.178049803673998 -1.4439683434176909 -3.3587698739065273
2837 -2.8858796220214114 -0.2497064882089968 0.4682152900046836
2839 2.470023777872233 -1.5113709153061754 -1.959237902639288
2877 1.922690908004181 -0.03344344914754378 0.07438966283720777
2838 -1.3950450719097613 -1.6194104292630922 -1.1041875752903407
2840 0.46583938932231317 1.391825698594792 2.189027968363383
2880 0.9563379520280046 1.0816944621843771 0.21452049549307406
2842 1.6470008852739098 -1.011982889113495 -5.184282548081055
2843 -1.084165961645154 5.532658966158994 -1.9757792295137324
2881 -1.684141927128296 -2.8055020088575606 -0.5205357226014509
2847 -0.2385646697644081 2.703837423043207 0.39841626177695505
2884 0.14133138647637433 4.021390018684864 3.264599141201861
2885 -1.2707166123543259 1.730395849638025 -1.0782311351045493
2846 -1.4811794200762556 1.6734831100841565 -1.3746157144301092
2888 2.35575666259234 -0.9469266986277927 -1.3695263356441498
2889 4.080685319170182 -2.858160017437542 -2.1058411313098135
2892 -1.3449803382468166 -1.1964663324035787 -5.167880192789284
2850 -1.1391205355904706 -0.8625001714552181 1.5897619155664031
2851 2.0903470315200776 3.6526992909312317 -1.8817917614968247
2893 7.420884437022543 -1.1947902625210163 -1.7025518860206788
2855 -3.771922972543847 -2.4242808075054643 3.544238841437933
2896 1.9470564117875477 2.932190305572459 -2.7645834079188933
2854 2.1199079166049097 2.659859490662981 -0.9347790566807659
2897 -0.5358446652831609 1.1515588032633823 1.2062217622819305
2858 1.5318430609505989 -2.1787197505297087 0.6446150534193009
2859 -2.2051257272205405 0.5211391494756129 1.9442495059630658
2900 1.2115278598658101 0.5729516339244444 5.831572091433551
2901 -1.7679531186695794 0.445496433926078 -1.798089415748059
2863 1.2373197241487566 -0.5708143740229268 1.5663629622487605
2904 0.5657666278436345 1.3542711040511726 -4.185501489808337
2905 -2.1055578123627483 -1.3200071630330057 0.20164520679834738
2862 2.3499336430035607 -0.7679439454461017 2.185104728128698
2866 0.054692840689949535 -2.1950040142177554 -0.6868547851488246
2867 -2.6800918257920676 1.4829437539571872 0.8245928027487727
2908 -0.7600972704539245 1.4524800404496154 3.4981962340840944
2909 3.552365838090221 0.9527658378634483 0.1541937069139782
2871 0.8750892235260386 -2.48408530034799 0.8060965291961528
2912 1.3733756983384162 0.2815515550248803 -0.6133827186636279
2870 0.501672126711335 1.7197570793385972 1.4237459241103638
2874 1.4574414696490312 -2.9964732743057825 5.5095565057982165
2875 -0.06774121919553712 -2.7278683585762242 -2.2074359720771595
2913 1.063977134014711 -2.2808161138978087 -3.88345964825897
2916 -0.8033438887492791 -1.5587596617052768 3.6674946428432493
2879 0.2822473993698796 -0.7852502548197458 -2.3052216623477007
2917 0.6837307610525379 0.41843884210328214 -2.2117986640835037
2878 0.6913505691411317 3.05302723147826 0.9667457019758606
2920 0.25369789211488253 -1.1530797993903397 4.188065253017876
2882 -1.2847682181753097 2.7603433100858252 -0.5171887376019878
2883 1.0256807122495297 -0.3037290744166358 0.01661372932557684
2921 -3.443192355203035 0.5492346305353718 0.6704532626190817
2922 -0.7509530413841262 -3.8201439328947555 0.6779602187710301
2923 -2.487256761833332 2.1424628879113325 -0.4410881135562227
2887 -2.532259807406567 -2.218815396870918 0.8737192746470165
2924 1.0446680560024364 -4.455548135058069 1.006444833465437
2925 2.1133976322811967 0.06768753218533134 -3.7996573848020723
2927 -1.3384422353585705 -0.06966297915857905 0.9622283235751978
2886 1.773919247569738 2.8995829206503787 -1.3288088807104725
2926 -1.0243602197044814 1.5135546547811958 -2.0773301376672393
2928 -4.572915014326353 2.3137563487845405 -0.42027504205470395
2929 2.0124587235886913 -0.9250226239617663 -0.4475723788013005
2890 2.642870334022818 -0.1404739310003905 -4.055190169300263
2891 -2.9966435570470225 0.8008624477079185 -1.7503141511094213
2930 -1.5813879524731673 -0.9695319949637421 -0.6584754270306231
2931 -0.7922568793887571 2.5646617946819754 2.0553180413576677
2932 1.2186938258344673 2.4289732582306485 -0.19297839654975765
2895 -2.3940720293183926 4.419168166390357 -1.4357784694242235
2933 -1.7967056703986388 -2.8339419109578494 -1.31978090040926
2935 1.6509448026383806 1.17591498366855 -1.219012885635201
2894 -1.3037542845914474 0.2178013397116887 -2.8583197948360692
2934 2.6733771615909867 -0.6606815202600543 1.1453515571945578
2936 -1.9349091043873217 3.786536698056085 0.06859207742386324
2898 -3.784779128098083 1.2609203001120404 -0.750895428063289
2899 0.9836427371205176 -0.1426113638133776 2.6521661202539772
2937 -0.05672211027765048 0.6857446375328218 0.8488080693340403
2938 -1.4451453834337584 2.2071455910716415 -0.6523005334926616
2939 -0.27436717586409226 -1.8124217304743946 2.4382343745171133
2903 -2.0097427910529873 2.856279149542886 4.182403773848755
2940 2.9305828791020687 0.3782272655963408 2.2753164873526144
2941 2.2921472839714436 0.8499172155831536 -0.8380190896787053
2943 0.1275599471573752 -1.8052613098942558 -0.6728175886763832
2945 -6.040753840462811 0.2610903142166378 1.5658448660431985
2902 2.62614274971098 -0.14460044175787198 -0.21462461883443182
2942 3.0185976550745135 0.2539660520621761 -2.536563045975517
2944 -2.196469331519831 0.19617145676051068 1.634936840984888
2946 1.1150292217660671 3.647774530290688 0.6402651917801737
2947 -0.48762467542750704 -1.4208574829194227 -5.006697549939218
2906 -1.847486889847051 -0.34017712637588393 2.122104142553325
2907 1.0211431378049223 1.5596847945573813 -1.8702187182119585
2948 0.02178711808691741 0.2099457371722023 2.029229222652777
2949 -2.6497019281408445 -0.6214106734223307 -0.9648154000679183
2951 1.9898060081284903 -0.721564547978809 -3.0431278367182886
2911 -1.2261298626258497 -1.0533622581850974 0.9502091800745162
2950 -3.1660616122670495 2.5890981908652484 -1.0249140134291066
2952 -0.8016517199524279 -0.929768791209142 -1.0036130296168317
2910 3.094337675547052 3.897681641023292 -2.7614206682487503
2953 -2.813174807450408 4.55904919321413 -2.779456566022507
2954 3.26094080847569 1.0254864495466827 2.5368355482127125
2955 0.0709023872240371 -1.3599489476966127 -0.1365528009715645
2956 3.1846053457735155 -0.030253908851693122 -1.238315159383378
2914 1.960670192399741 2.3228980972571347 -1.015957334663243
2915 -1.6337607216288643 1.7100010964503831 -3.7392800734691143
2957 -2.451459877517243 -1.9637788933419662 3.433276400425247
2959 -0.28466896926859775 -2.3185963876117683 1.0326050596873213
2919 2.8578613689651737 3.2157583785242543 -3.8874974099815067
2958 1.2759113034313447 5.188179131362808 -2.5292124735825143
2960 2.2489394764441313 0.3785087864096314 0.682756429761912
2918 1.0070912061124162 3.7449412436268252 1.2920102461619576
2961 -1.141187612541467 -0.42257647808810056 -3.33297162788739
2962 3.5197325164680704 -0.44238511871337216 -0.602994372281093
2963 1.8498219473325432 -0.010652668837076275 -0.21067265302079868
2964 -1.3591480338629884 -0.4402923669826129 0.7498476900863815
2965 1.6545041353925984 1.6341769624519351 1.3940300547127085
2967 -3.15988447867309 -2.565619733057674 1.6535907210078782
2966 3.9945203942520564 -2.2694968153615727 0.5362496536064701
2968 5.832308320175883 -2.0870856501720705 2.228928012273577
2969 1.0889183967024627 -1.3789631847061745 2.5156802872661115
2970 0.387364814245738 -3.6242028098014143 3.9074565380873443
2971 0.46909054921350085 -1.5257011716251065 1.8522755898506256
2972 1.7365704031561364 0.6717379670013817 0.2262642990696343
2973 -1.4000260936014934 3.611606189053041 -0.4369514462153568
2975 -5.215890391476349 0.9928174486279191 2.68381434763384
2974 -2.0850130526451656 1.2621270628057069 -3.442129435157889
2976 0.594830247749736 2.4444915423691014 0.23465177699696776
2977 1.1277370207850206 1.4707432555370705 -2.093758388981008
2978 -2.9819596938732507 -0.8107707116470099 -0.21157472167479735
2979 4.72048975753149 -1.126019479700843 5.359959108080592
2980 4.411792027270538 -1.860164371402603 -0.488291652283163
2981 -0.9734052121314604 0.8406845971160835 -2.3534773216418543
2983 3.274673102292071 -0.37607276999423056 -2.5322897412616627
2982 2.0042227354629056 -1.4057568247220749 0.33772867563636955
2984 -0.4254011869990023 -2.0029588120268187 -1.4038018731261224
2985 -3.444335085601948 -1.0185557127123184 -3.837296084096929
2986 -1.7621464904072275 1.4309989311642861 0.4444280402539903
2987 5.646123859333657 0.5929602079121636 -0.9255574550221776
2988 -1.7766076330349962 0.7652874997592083 -0.09852367320825764
2989 4.001043978876668 -4.150156195601986 1.1240125478782244
2991 1.1617646599633602 -0.8857863647265659 0.3826402450473807
2990 -0.12711034211904848 3.899362478839276 2.851475374158473
2992 0.9994597148876683 -0.9931861077332446 0.6532005955804314
2993 1.1036140296820833 -0.96174958418523 -3.6230470515807784
2994 -1.4815399435075507 0.07073969247780838 3.448241625856729
2995 -1.7970796680108883 -0.12222158084751705 -1.2529933155756587
2996 3.703713205767614 0.8947044729532894 1.5635766526612256
2997 -2.2577018124884876 -1.5413334159869772 0.4843134904345393
2999 0.536260416342065 1.0721738517237276 -2.7385972711517614
2998 -1.7764471034202698 -0.4293536837986204 1.2298399796024193
3000 -2.5938152008242747 -3.2313406932416586 -5.4039513319977255
3041 -3.0393743263277866 4.912728173831862 3.569931789305336
3001 -4.685579618038048 0.7140336539002465 0.9458957753518722
3002 2.375640911082499 -1.3105817019496007 2.2800069187750003
3003 -1.564308037845115 -1.5401476421040197 0.4740292099482828
3044 -0.8957897573435544 1.644174672496407 1.646850472837668
3045 1.7465908533844157 -2.2440695592243225 0.1537116152219755
3004 4.485924467201182 -1.8603120042828165 2.4085148904025258
3005 -3.135600561744562 1.0572586500888084 -1.0323319400917312
3007 2.362254789682122 2.632419370697401 3.9539984277940654
3009 0.19713961842948874 -0.563015681695646 2.67271641045504
3048 -4.47114520555499 3.671399930278568 1.230658295277592
3049 -0.20909255225205706 -2.067448106973962 1.5745688320432933
3006 3.865249622634316 0.6715688556849706 -2.302297910388935
3008 0.6759873450271424 1.943403850161075 -0.37203603843281396
3010 -0.7901144982424658 1.1153574093803915 -2.264127360275901
3011 2.499228701788995 0.9974868009021233 2.294797806720485
3012 2.110670138282418 3.117891674039874 -2.3730900501037997
3052 -3.9002582512001656 -0.7465559213567023 0.13843741449017877
3013 -1.6817488091749322 -1.817516182951373 0.592801269520414
3015 -2.2023495362762677 0.7912549796625064 0.06764298293044287
3053 -0.4505108392409302 -0.628245500643783 1.9290749877772293
3014 -0.3860267483282179 3.4172135091885396 -0.46757276971655914
3016 1.2943120314504404 -3.258661024325908 2.461224215174881
3056 -0.2369797361467913 0.45439038654647484 1.4431218676301334
3017 3.8300541312155825 0.12233007359979897 -0.4653847342254666
3018 -0.4864634031785714 -2.815682001406733 -1.4963703319609203
3019 2.2922708092806667 -2.383108857060503 2.00900766217312
3057 1.0369260955707087 0.9184639651296954 -1.1504020513422069
3020 -2.930139208533706 3.0716422337794183 -1.4475665694178717
3021 -2.001706850908558 -2.082212651300114 -2.3118361313237337
3023 -3.2315259705492774 1.1375120715854012 1.5638501193504541
3060 -0.12777584166139144 1.4905891813600898 2.5609978736725942
3061 -1.4246806657214448 0.12935160576888635 -0.4857910591351816
3022 -2.6354472109087426 1.196827010147021 -2.8805034913588603
3024 -3.948878335416033 -0.17915883212139205 0.4551072785183875
3025 1.126823451377048 -0.7819992574725292 -0.04551257554062121
3064 2.7277086069822998 1.1019332051095585 -1.8889151457296665
3065 -1.0163703345845039 -1.537380064290992 -2.762458527498045
3026 0.4140021562568536 1.1106210751624943 -0.6449447651686462
3027 -1.2010643299733363 -1.5293334485877124 -0.8194418213591033
3028 -0.9330129620056313 -0.8551811906000223 0.6516497814484496
3029 -2.4112373560264033 -0.7130019400230025 0.6895888408048998
3031 -0.4149416672727505 -3.0578521607258407 -1.9799361117227736
3068 -1.5295350764896178 4.141967066918261 -1.0647181596691817
3069 0.7571816921701641 -6.024799418060048 0.7605519036678144
3030 -0.7048057386074336 1.408865548914331 -0.8951699493475532
3032 -2.8956328373544173 3.2031118892182175 1.7536623119737706
3072 -1.1056667507288809 1.7304089489275833 1.8515154120939723
3073 1.3779611590395864 0.5004747861681689 -2.0950043037054296
3076 -0.5809729751458336 -2.203363432144428 -3.144261439428235
3033 -0.4859474919928715 1.0951969139559201 1.2514037156887035
3034 2.401350649321062 -1.5732991666668088 0.4352709369118301
3035 -0.8466133664935254 5.468560257772511 -2.020012502033233
3036 3.708149956835794 2.1392573272030235 4.547577734358223
3077 -2.908725876254448 1.4813218537850557 -0.5808206349914669
3037 0.7336114430688976 1.5914642432505168 -0.15680165654156347
3039 -0.8592697349248959 0.9826119407184634 -2.9968373076472856
3080 -2.913198019953554 -3.5383425183594346 1.6915648669243268
3038 -1.4130702847107612 2.033338443460425 -2.681456502814801
3040 3.5362489031795885 -0.26162998378952945 -1.3428423111463554
3081 0.2557450534470353 -0.46982143884784516 -0.5037660173372732
3042 0.9965793386020122 0.5955112849442981 -2.9174493677160496
3043 1.2738451339959753 -6.070083569990276 0.6776879643740247
3084 0.06963381002593971 2.3100153562124985 0.5181342890895035
3085 -3.3966252537242245 -2.0506900549443334 -6.666131679411674
3047 1.8792339909615152 -0.1573028206321818 1.694367133235173
3088 -0.16964843438171387 0.27817745533741256 1.0335993493540152
3089 1.3236583959082593 -0.40455087464433287 0.9948681847809451
3046 3.880256789146612 2.489954283625124 -0.6767984044017789
3092 -0.8609805662743035 2.8057189821404114 3.171537423957218
3050 -0.8521325531432078 4.155347146644707 3.5143593010328082
3051 -1.961794317196468 1.3899893882309928 1.6216186734169795
3093 -2.4171140716549915 2.616683964748216 -3.6483465351036584
3055 1.3407259580579305 -1.4550909508576164 -2.7506314147966804
3096 1.1977095841136498 -1.4127294070254697 -4.530938668228105
3054 0.7490709271861072 2.5971329920533237 0.896638020790879
3097 -1.558626521975546 3.036309901267723 0.4586845083969157
3058 -0.5498236981235654 -2.658783643047172 -2.8007379193796567
3059 0.32654314855455113 -0.8562073763542005 1.003587660381858
3100 2.673256487629268 -1.7523593522150698 -0.7445945004594419
3101 -2.977849743219985 -0.3338699147517821 4.836267244291328
3063 1.002490503607592 -2.3504433518740377 -1.8219488555335372
3104 1.0598930342550945 1.5027291410492254 -1.4595579724644367
3105 5.27446888214261 -1.279922481881602 0.7435900025638509
3062 0.02511074396538945 2.3028645272589103 0.26387818343988323
3066 0.8320603533037391 2.1740251163411974 0.5764398372050855
3067 0.6075698158513952 0.26727460289266053 2.236511250901292
3108 1.4595203789857594 -0.00467601422448255 -2.6043750788056026
3109 -0.03494383053708788 0.5439363683221079 2.3590714521969574
3071 -2.349724199075999 0.24167389149954718 -2.2297874177669645
3112 1.043230555000735 -1.2055970259542488 -4.003271077359407
3070 -3.998432074169762 -1.374382704206213 1.0019813092448329
3074 -0.15945919881678788 0.9551047096246287 -0.21229950858877264
3075 1.5333335982397558 0.5095787994403025 0.8462456422505945
3113 1.574762939603473 -0.8399583461594397 -2.330980955087052
3116 -0.25274512816959777 -1.1155882318645107 -2.472702712348668
3079 -0.9159691302424804 2.7026703297002292 -3.531838722477183
3117 1.8781260937001414 4.3452696062244724 -0.5974020805795791
3078 -3.0360047086399384 -0.18771110079416614 4.125206985744517
3120 0.43717717348457014 0.6669977755507166 0.19150833771064757
3082 -1.33576254297987 4.267414048526226 -0.7466263262671677
3083 2.9584760855519954 5.065329999416117 0.9773863576967946
3121 1.0968052779465103 -3.8420773949819793 -0.9145422845979795
3122 -0.2745989408176936 3.15622994623079 -1.1324805939680291
3123 -0.2847132925452657 2.048087830199068 -1.8079517848279758
3087 -2.1666980153923543 -2.7991397955135575 2.356092117864654
3124 -4.889762854699052 -1.6143849079139285 -1.1210325435798474
3125 3.5216656835007423 -0.8548778957591953 0.9982054439853992
3127 1.8914249916152184 -0.7355181559347564 -0.5053474023724389
3086 -2.35636959434528 -1.4824379586880698 0.12935786181132716
3126 -1.7966493288122385 1.3947401651448348 -3.535780056304744
3128 -5.1870793513555755 0.24633102285031472 1.2161683488341837
3129 2.494317054565745 0.12174987931421226 -0.7600548914355998
3090 -2.0763787804009852 0.14781327232319544 1.031302685701171
3091 1.5714215849498896 1.9289474838795344 -2.7846438444568036
3130 -2.986732015282242 -2.306116480926001 -0.0005671282350592298
3131 0.31364004133506435 -0.19292698758339696 -3.2168889296281376
3132 -4.7933646055464045 -0.37870342722457984 1.7676112330472853
3095 0.1731487536084666 -3.0060296055887656 -0.862908097300102
3133 -0.9545282141373017 -2.2841193997380342 -1.5526208747811916
3135 2.3203759239769606 -0.31088024947500215 -1.41025480505824
3094 0.6483935496966183 0.3733708255088459 0.04593488855673143
3134 1.059837255544638 -1.3822096423598893 -2.475995762353859
3136 -0.6468756184058916 -0.2575035245036589 -0.6315934548601365
3098 -0.40041540181269564 -1.248534385031081 2.6593023334569166
3099 1.7856967932122008 -1.10275773385186 -1.9996246243738518
3137 -2.674114302235195 2.9821738344564674 -1.2910903491693557
3138 2.9444506568838227 -1.4346626544748726 2.6943552913937383
3139 2.041076504617569 1.0582619956248884 0.3981363650770356
3103 -4.045376835179927 0.46131846912571545 -5.641599234664562
3140 3.150966518771138 1.5480656704183224 -0.29165429108891316
3141 -0.5545072307323883 1.3853311774258878 -0.20537826288602568
3143 2.8669073451534537 -0.04679965240013273 2.30433920815912
3102 0.2285802426963493 0.13714143862888376 0.29981659915855763
3142 0.0008376034950975702 -1.3418279593995646 -4.388335458476224
3144 -0.9964547236503448 -0.772560499289524 -1.4298804484281402
3145 0.7671350408473819 1.1519219883285687 -0.015660340299569343
3106 2.867299644800343 -1.1272280888044732 1.630031544411127
3107 3.22424358885581 0.09943109361882037 -1.4778766642399612
3146 0.7199038494428464 0.13005919355540474 -0.9549934717177511
3147 0.8524541134622807 -0.5691025794606711 1.2783025603642082
3111 -1.092436532501499 -0.8040352725615201 -1.544171604811435
3148 -0.9874628009328937 -2.099863225976075 2.1515641724298713
3149 -0.43507075966890113 3.1609172446410816 -1.7514651818808125
3151 1.8933080640681401 -0.9564968273434974 -0.2665861737944119
3110 0.38836338948595084 -1.9031604766450723 -1.2198428885216825
3150 0.10574539831895902 -0.5427150443391221 4.110958637428551
3152 3.8498405944104137 -1.4873733776238123 -3.1222575416024188
3114 4.530745440627607 -0.16464615868317053 -0.8827102057055716
3115 -1.5854243263352799 -1.4839470317901464 0.3571930778826059
3153 -1.6075136947393762 4.443792531336584 0.7150936187656983
3154 -0.07139955158616228 -0.3439368941337168 3.9175175591638145
3155 2.5270329568968637 0.6485438982934689 -0.7560948074051963
3156 -1.0694098296983185 -2.0646258244220412 -1.2221738166241876
3119 -0.16334859997175166 -2.0019263363924176 0.7219677656973936
3157 3.076739892613762 0.7207254305096457 1.4455001757114425
3159 2.4821859673877245 -3.3443282669517305 -2.0475347231120917
3118 2.589765932072543 0.697592958568569 3.962901682100755
3158 1.6631520737098342 2.2530579636175068 0.7339499497890353
3160 1.0028165104173303 0.296196080624147 1.9846119231464605
3161 -0.13212868753023163 -3.1638275324843512 -2.7918971939941897
3162 -0.3948552517591252 -2.545884643046776 -1.091823879584768
3163 -1.3730238683114107 -0.660916819346951 0.17735923609642992
3164 3.048639183626481 3.173963465953199 1.0053171644564192
3165 -1.6160903286996213 -1.4191693509889325 1.0976803786279594
3167 -0.31588610184776456 0.7494281743490809 -4.52090949550149
3166 0.8377188744881392 -3.0836380747045404 -2.1967868483744333
3168 -1.2789366618862372 0.7101464395372528 -1.310108497136532
3169 2.0890910557754054 -0.5548088874101876 0.6227046032457466
3170 -1.0430052785701038 2.2969575163561875 0.10034143829697224
3171 -1.2066096987444808 2.434019927936484 -3.0016717441926892
3172 -0.30350834466836407 -2.1865632910868893 -0.042097695708697216
3173 0.08159232015624408 -1.6148774759138989 -2.451486932222904
3175 -3.4890759673746627 1.9753743100928454 0.4131666983606324
3174 2.011041093398975 1.2136348806130333 -2.513763064444438
3176 1.8510296381994797 2.2775389644272304 -1.701807864292409
3177 1.4169902274403432 -4.653823197708727 3.5487493977979434
3178 -3.3444063669256185 -3.4881868971776693 1.3162119977138913
3179 -4.150424164014004 1.2730545511769422 -3.4603847053413674
3180 -5.2048861064715135 0.14762301233926908 -2.496801927196784
3181 -0.8469031598036093 3.21267892391737 1.9990628042533518
3183 1.490728211156809 0.07033220640568046 1.1470825169059957
3182 0.40355586523992054 0.5835236787388952 1.0847762222602353
3184 -1.4345909105903913 -0.957456422251578 4.352018081990762
3185 4.03834254378776 2.5186396010030077 -0.3839379973912961
3186 1.4052434725935483 -0.023208988778820588 2.659452780146133
3187 -4.540397973608097 1.8865917806618129 -1.1263731313621554
3188 2.195797010667081 -0.22916689203864976 4.483343732395435
3189 -3.26447351457168 -3.1842794656426654 -0.03141292425395674
3191 -1.4423432633824507 -1.7342241104871008 1.0496765591175992
3190 -2.7886776014979717 0.47785362162136336 -0.15462131047821587
3192 -1.055159900960826 1.0708993453475435 8.08638530286911
3193 1.844892563931728 2.4277173341798273 -3.077917813278628
3194 3.2956280789173853 -0.7069674905834702 -0.15525066284665903
3195 0.5627681120098923 2.910154438190409 -1.38455154277744
3196 -1.698375106983249 0.810514946626823 0.19347227929187286
3197 0.47627153120034066 -0.2963001167312791 1.9741946305456863
3199 -0.8341904570231549 3.417539056585384 2.95147183994695
3198 -6.451538417578176 -0.5591316785168213 5.1651618657186775
3200 -1.442082494030668 -4.632543258330628 -0.5239933077027805
3201 5.451300124690928 3.2925861262036453 -2.8965390422591653
3202 2.796708192826542 0.21696184177261957 -0.9264824073210054
3241 -1.7530933773921473 2.6894502719584703 2.5067556571648297
3205 -1.92649815293241 1.131120777666479 -1.438424344911777
3245 3.3477501999730093 0.4663008679401646 2.0459937181238805
3206 0.1222024668794605 0.1524689392993864 2.0773028636881787
3209 0.17432778301071347 -5.369340565506089 1.7180931734715494
3249 2.0715832143538044 0.24066917109621172 4.883985052482504
3210 -2.005134157485608 -0.27798099464003106 -3.818952144860101
3213 -5.310920706053603 -2.103759335147454 -0.7920841164304198
3253 0.21266235036804598 -1.1854700100957831 -0.7731415024422725
3214 0.3732988520217414 4.058359357803763 0.12666957924761943
3217 2.5203043201911886 3.1124981762323904 6.306996753678589
3218 -3.0207294936018325 0.4035446793703539 -2.569945839810559
3257 0.6801388051581843 4.138052248060179 -0.7025202331459021
3221 2.4323894946309133 2.224420969294536 1.1263636000443629
3261 -1.6985923908202785 -2.3224697734593076 6.220993088957102
3222 -1.5217947982465514 2.407342833464547 2.9153648422272918
3225 -0.6639173419048018 -0.25599636738308595 0.3570823594162634
3265 -1.3577944279414877 -3.19459434547113 4.858630171841392
3226 2.6978194701801406 -2.356098351158859 -3.6618644903186284
3229 -4.062921637524117 0.725815556797432 -2.774417189488578
3269 0.6949844810113783 0.801985589748391 -2.423155090437275
3230 -1.5256012619747055 0.7779618924618132 0.3752740933752821
3273 -1.7994081289201034 1.8066939396311734 -0.5702977919669563
3233 -1.4715347684708098 2.2312911265358637 0.6484211785323131
3234 -3.542518846561625 -1.0042968605429154 0.5166394968333158
3277 0.8854009063345787 -0.9231880496221777 -2.4296202343265008
3237 0.991211234910353 0.36346286718752113 -2.80739717454534
3238 1.238173208069709 -4.781842389302303 1.1494471240553292
3281 1.2841832322624624 -0.8570894515265618 -0.2564550921583501
3242 -0.22719721894247824 -0.5006170182881411 -1.6735670093036017
3285 -3.310055395233469 -0.07351802706693379 0.6551570152552751
3289 -0.5636712277813367 -2.2084920105682078 1.696893286760181
3246 2.9002861704053116 0.9525119296967461 -0.904271375556097
3250 1.168650408012691 3.559584297401143 -1.8702179976446047
3293 4.567397669372089 2.2081519780871592 -2.913075747546528
3254 0.1324561880783732 1.7501321505216565 -0.15359600153530628
3297 -0.4424873083266508 -0.24157792597674133 4.40392921613714
3258 -2.128172590123553 -1.6586549473917946 1.7407692097648564
3301 -2.5212247388599778 -0.42639390574590064 -0.512269455630946
3305 -3.3767894703588848 0.8874692738240818 -1.6151997565104874
3262 0.9745258789016662 -2.9570332239138333 4.150265028895713
3266 -0.37200857759134354 2.198817171370501 -2.563530572339732
3309 0.09527768710711462 -0.5193291113704994 1.2523094884183823
3270 1.8771448120596717 -1.0586690069154057 -1.181654550950794
3274 1.2102154856653045 2.0369251693610395 5.791265992539158
3313 1.3628460995453424 0.5639947455653653 -2.3359664282629975
3317 -1.8133713130373728 -4.490311594677733 1.5854294988443567
3278 -3.208356674981344 -1.560488073321222 -0.2730598400854526
3282 -1.076016459448269 1.778623513682637 1.7358008898302815
3321 0.054079372752971075 -4.175016183291701 0.1992807329281551
3322 4.254068232490064 5.166968215118114 -1.0117583398364505
3325 1.9881538045585665 -0.06350043259692326 1.965088535097558
3329 1.201916555668341 -2.5127171454124446 -2.9798000589707274
3286 6.170989760105514 0.9607036212408677 0.3427686274239943
3326 -2.382794490157979 -1.1671288136946685 1.2735009792917527
3330 -1.8533493509015286 0.7292056212259128 -2.234566105601449
3290 -0.6875264272179349 -2.0765835761002402 -4.479370351498301
3333 -0.9832741017473078 2.264837264182611 2.181732701880999
3334 -0.7671983140567026 6.95796539556518 2.8276520768295126
3294 4.5299892930832 -0.7682006494878547 -2.0208513346409145
3337 -0.244857772473736 0.5565384711990572 1.9249652550380019
3338 -0.2974311053785324 2.3869756797941197 -0.5347968501675164
3298 -0.33943568319235173 -0.2602875793980113 2.3627031041300297
3341 0.8453771822246192 -3.879945744378211 1.70357841929126
3342 2.278717985556315 -0.7999012072295203 0.009849194311099676
3345 3.729142156222141 1.390819468413026 5.103095783504243
3302 -3.8097080711208755 1.277243617494516 -2.7524102267957553
3346 -0.40776333471160986 3.199413039240519 0.7723829521013034
3306 -0.15196023697776984 -0.6530280467105759 2.0288156240844613
3349 4.928097312678069 3.5094071071226405 3.9751897491022006
3350 -1.5979405963991433 -1.3021076567968408 0.46106279087255075
3310 1.605277719348085 1.1362780606083165 -2.5749342289001738
3353 -0.19457491715544564 -1.017261998170219 1.3429821599970029
3354 -4.750835588407034 2.96082356977877 1.4791317595122995
3314 -1.1371725652256846 1.027384665258785 1.816596894360267
3357 -1.8458750405370594 -2.4424127656634123 -0.5607901301525713
3358 3.365016990326857 2.203494545670931 3.6997385450886506
3318 0.4062586242335519 -2.4920591349585237 0.4842074926750693
3361 -1.916746264483366 -2.2366496921761914 -1.5530504163052419
3362 -3.1508089196705784 -2.4364167222891226 -2.2990240718352513
3365 -1.2267077797837638 6.019947857235473 3.4159362233095982
3366 -1.7255210349571999 -0.5272442582483977 0.1267416901439993
3369 -2.9646661301515227 -3.0021419146608794 -1.6607818346275391
3370 2.4547748762716144 -1.9099164769071166 0.5955931305979277
3373 -3.615667545954468 -2.175119252436533 -3.112215317175957
3374 3.219252042109469 -0.04352774918568166 -0.5223456363713692
3377 -2.1830032607284817 1.2805329397779768 0.27595786711852927
3378 -2.007915328098038 4.3047946341418495 0.13780515364607346
3381 4.493961014942725 -2.890016267179556 -3.174799316145863
3382 -1.4201455669878527 -1.0311601100932661 -4.307834215658349
3385 -2.0952207126248164 3.7617574695227107 1.9316349359796523
3386 -3.1877338951267693 1.1752512891008096 -1.2796873572541683
3389 -4.376845642956562 1.1979705046290303 0.5272059864467137
3390 -1.6743259584998222 -0.6827077511098827 0.874407968555403
3393 3.754303881998395 0.5721626046836106 -1.1355974773089004
3394 1.3263552175686923 -1.5430224832292958 0.4416962144187248
3397 -0.3571296940577391 1.2032345348819715 3.0907541039015682
3398 -0.3383970229212228 -3.0434696307594074 1.5858115720407304
3401 -1.8810620969435246 -0.5735093109028503 1.2614544553212486
3402 -1.9830068818595852 -3.8497171177108624 0.9425237469440035
3441 -0.37954835256366354 -2.357101529123948 2.9769471708379074
3405 -2.744878729057255 -1.9139012122235182 1.2163968683367423
3445 0.053101624442920874 -0.6133908134945847 2.756620240984721
3406 5.000314830202025 -2.059708618948415 0.17894597013919816
3409 0.47290062997175475 -2.4881560444538304 -1.4198501757032267
3449 -1.9879371476677643 5.733065660342616 2.833219181764999
3410 0.782681075412849 -3.9972611740191217 3.841437686681856
3413 1.9074974876216824 0.10132206046174483 0.055188182867336254
3453 2.2045074939936775 0.9732397311807093 -0.2517458775722907
3414 4.658157719102608 -2.421415990902052 -1.1831925233931895
3457 -1.621303946189311 -3.3160360482643583 -0.4852218322621501
3417 1.445496459946789 -3.3427321347989514 -1.6948984583799234
3418 3.3865235352385517 4.447424846841909 -1.3190499098158328
3461 2.526511554613834 -5.660892286735865 0.5776540233284754
3421 1.3368749822889612 -2.279966508175689 0.17716887750509783
3465 0.6908986246887643 -2.8852596482093458 -2.3644108919039453
3422 -6.331025362318529 -2.666880655984777 2.2639973327637963
3425 0.7628082762339983 2.26514828638958 2.405198361165909
3426 -0.35152480157580135 -3.4084920162194225 1.9042974779544957
3469 -0.5143576718986858 -1.4895364735048786 -0.9908900889434218
3429 2.491004151742858 2.975786958466505 -0.2849442853170127
3430 1.802338508655946 -2.277054398166418 1.7288650102268706
3473 1.753315932924421 0.8356613719373854 -0.07162486224117778
3433 2.234228314576539 1.19982997657588 -0.8175214881384212
3434 -2.0027337307205935 0.5401465457224807 4.7993757156718315
3477 -5.756694503817553 -2.5058522131830974 2.755027191807355
3437 -0.7139796772672526 0.3683163278971759 -0.5861017389131695
3438 -1.4814285769292186 0.19856557077719414 -1.6734316880277393
3481 -1.3402963859420776 -1.062269560078114 0.09861885615854776
3442 0.5792412156857966 -0.9263134194780046 0.7492227470443958
3485 -1.0630614059191759 1.4183197905933784 -4.404958560383311
3489 -1.5362202794561877 -2.352756747960309 -1.0491461325128992
3446 -2.449872656868867 -0.6790597899544979 -1.7290290013031206
3450 -0.1523747173339994 3.6146538825799666 2.000954319770998
3493 -0.10748042493858967 3.515563322067137 0.508242368788028
3454 -1.549096386935843 0.27843052757215236 -1.3148220194286686
3458 -0.8963081790909292 7.064996237829513 3.6348460755905605
3497 1.9454504988901733 0.6650232943033518 2.6555728144989064
3501 -2.183009909570196 -0.34950512666112027 -0.7960980017402042
3462 2.0320055169620335 1.8925195992500472 2.6284738807945742
3505 1.2311043638327959 4.054005305429796 -3.165241407906629
3466 -5.896536348067519 -0.2592391912668559 -0.16197717904714629
3509 2.1933564561090213 -3.7833460207750034 -1.1657006354314787
3470 0.8554357580416845 2.3401002736201777 3.2145503148025267
3474 2.060029399769718 2.118396240450321 -3.4067060076746065
3513 0.899785777633016 2.0170620692789534 0.9349939870343016
3517 4.992352218207158 0.6044499286715183 1.3274648455139777
3478 0.5253978260223675 -0.33600742506853987 4.181036519086851
3482 1.1228448847822263 -5.480234495010958 2.893462730502548
3521 3.4579022542874407 -0.09965450260132988 0.6565237409672844
3522 1.1730359398594952 0.37477121071696146 -2.7624342689709
3525 -0.47343121586748377 -4.2820510057002235 1.045467214015356
3486 -4.491128139691744 0.29863267567935964 1.3341782512264744
3526 1.9620224989447796 1.5946049714423827 -3.0903682861897646
3529 -2.4795190705743146 4.215644226649809 -0.26222478911999014
3530 -5.982641793430628 1.804300957928427 -3.039937479308687
3490 2.00439387026159 -0.10545811599056197 1.594887557161927
3533 1.478471313514666 -3.7214149047362612 0.7567452972595271
3534 2.535881618966133 -2.764339856572514 0.8783478565303174
3494 0.4676352059929824 5.890445280285139 0.7689055556811055
3537 0.40782801836405885 -2.3867290606468545 -4.374484273850897
3538 -2.923391531957826 -3.0449681073874153 0.11442421895804077
3498 -3.9369664539013174 1.4617953973289006 -0.6204987386485562
3541 -5.808291072055541 -1.6029950279168856 -1.3449591234182963
3542 0.17828121318841217 2.44097558737485 -0.3714220848659018
3545 -2.9616701790026005 5.548886967269865 -2.03618031934104
3502 -1.869932965855392 -2.4886217486300035 -3.365185641623745
3546 -3.258906902192737 2.76472610030084 1.394707105238113
3506 -1.6470547061614635 -2.3170851259357796 1.1772088764712036
3549 -0.6977243517066494 -1.178033514902307 1.424627025433233
3550 -1.3882331943902095 -1.754082351156277 -0.9623163708965613
3510 0.5552161267731749 -0.01218264797256752 -1.1249771776794606
3514 1.6664894710237883 -2.876491120647456 -0.9942279257065391
3553 1.9202102947158624 2.056912546632337 -2.842640166868081
3554 0.8847376124688476 0.7574444887640913 -1.8085383404398347
3557 -0.17712616834068687 -3.2395803924702196 -2.2550364425860496
3518 1.5919267198488467 -1.5181625572220316 0.9222141259943941
3558 0.3488397454853045 -0.470458757825539 2.45359928298345
3561 0.9581997376213118 0.18496618715952087 -6.664558386367686
3562 -0.4928122377151741 3.6224808196086498 0.14180868517652226
3565 1.1822765156655355 -1.1230718911818514 0.4466421216853086
3566 0.9617289308914749 -0.1253980778166899 -1.5329828071508689
3569 -2.0464238602004756 1.4006758877515684 1.0697918110089992
3570 -1.1912141433082808 2.084447778174839 -3.644131006361509
3573 -1.19876817451759 3.6313810223116585 -1.6248351297432908
3574 0.08247128090889339 -3.047204657089811 0.5445018733280286
3577 -1.008358623673228 -2.223533403697774 1.6277001643685032
3578 -2.1115060574870825 1.9007207327159643 0.470108438504365
3581 0.4706532319344439 2.8731485235334673 1.2563800661409081
3585 2.0924196931664065 1.4655417546871472 -1.7101237333298918
3582 0.5580027146206517 0.3672865343349065 -1.052637297899483
3586 1.7509705490601155 0.32342907154400025 0.6141066300888762
3589 1.188204556578253 -3.3651360072060794 -1.7787426865105689
3590 1.754252436678367 -0.7467087645154319 -4.247799628181443
3593 0.08026070717687442 5.1196959407486915 -1.1801277068399796
3594 0.9236867851241937 1.1490142832816945 0.4620919341823898
3597 2.824380883029042 1.3167717485932593 0.3411561133790532
3598 0.6817236894891349 0.16644216695290237 -1.652077708220813
3601 2.8980002661433666 -2.0089436833764047 0.8699286446229981
3602 0.3067869772325234 1.0612465224863346 3.4035779134079815
3641 4.273813170689974 -0.07102590497644472 1.0708204493007607
3203 1.3329985582340094 -1.5833159324998558 -0.15409879949370697
3605 2.4435032378650754 -1.759155749776726 0.7034837987620275
3645 -1.2660601432141725 -0.17611813411534807 4.125234898590431
3204 2.4669514769587932 0.7062594578580531 0.8045075572162212
3207 3.4070766006144906 -0.9372000263065892 -2.949729436482902
3244 -0.8523556326641335 -3.320230843993846 0.3011855822054742
3606 2.452166989998424 2.624392445875801 -2.168781017029864
3609 -0.8456526642606262 4.514062072764227 5.64345547325823
3649 -2.6537655660084267 0.6150574581916571 0.697911828098693
3208 0.24449057847722586 0.3214955577524835 -1.4918784528630542
3248 -0.750960236981935 -2.4053787664164443 0.766345863978304
3610 0.7415312321006143 2.4809318293420337 2.2469085556884765
3211 3.185063119749511 -4.662001030917228 1.4049403630713877
3212 1.7655766574093903 1.620739786659403 -0.8751541820768284
3252 -0.709538735866977 -1.5203157526164355 -0.6519063625097913
3613 3.3096936688942136 1.9724489159273986 0.23752213058132982
3653 -4.063127456580469 1.7376045735071515 2.0013628168842015
3215 -5.045809392932553 -2.8661507370505834 -0.4376148552225843
3614 1.0831380267811768 -3.369566139443579 2.6826817857310727
3216 0.25575173932119133 -0.1441686648696839 0.10136837807822122
3256 4.158688527058931 3.0362086161786754 -1.699856106544671
3617 3.608671945484842 1.0333988949521267 -5.310676143618556
3618 0.09319483535757006 0.8813226409987155 0.5030380351341305
3657 -3.4159932601253717 -2.327255108542141 0.04983172761457576
3219 3.3307715145648773 -1.3030291805844263 -2.8836080020956247
3621 -1.2452867753320427 2.5801778011589485 1.1209050736037967
3661 -1.9563127972537815 -0.9849951970358145 2.2583992567292865
3220 1.1862533161401423 4.133380918030344 -3.829269518231449
3223 -1.5564565746790424 1.39083488387344 2.5645895354806036
3260 4.720682516013027 -0.9693070975981471 -0.015603704669307918
3622 3.2210550428234543 -2.042610258260482 -3.5261492500335794
3625 0.37844087054982456 -2.2772569407510135 4.009289768095879
3665 2.9123474599371253 -2.120888205793103 -3.062262192109726
3224 2.852453896062604 -1.1479315177031497 2.4279556973616936
3264 3.107423784519344 -0.3082897491774711 -2.1217309506284554
3626 1.8005565764220959 -3.1161200532934994 -0.34861960813893594
3227 2.5134832187750544 -0.966104364872285 -3.731839288220638
3629 -0.2711911126156188 1.6143039660227803 -3.829488306758149
3669 0.9429745231990327 1.3620186679855701 0.08327948913627868
3228 1.0907378775358627 -2.0643240635362106 -0.5781189782549078
3231 1.1140631153183964 4.308140844904088 -1.6053762611180011
3268 3.9795926475376615 -3.624062288340503 1.388966420399519
3630 2.5322753351201737 1.2273323150434499 -1.3763918084660793
3232 2.547113209924428 -0.44385826793577887 2.453057968669323
3272 -5.7718710711691426 -0.21588425395397942 0.597388725424739
3633 -0.03799400235638312 -1.1529324958035077 -0.9919375608425927
3634 -0.33456055363174164 -2.744468460276538 -2.5383342578874553
3673 -2.277951025802112 3.9313628546473396 -0.74074560059009
3276 -1.8471128909621448 -1.3790725705486162 -3.6274277301550972
3235 -2.52176907247779 -1.5821108739345147 1.5798704219705424
3236 -3.0601115648914643 0.5674298370705145 -0.5833516846114034
3637 4.745241200164362 3.495503940591667 2.1980193523036835
3677 2.4595922302507134 -3.238504490674816 -1.6621742273831774
3239 1.6578579222498895 -0.4653282241330162 -3.7024561858414495
3638 1.742778650113482 -1.932627533925888 -0.4870393319316019
3280 3.5720799131679692 -3.0490965813182687 -3.1539495946236866
3240 -1.2413775091596602 1.3927995139376546 1.2604718679656293
3642 -2.500539970830745 -1.9882057010121725 -1.4308927425757887
3681 -1.4769013082184543 -2.917085604819015 -1.5435137497292242
3243 0.8637358671621225 -4.396484383598351 -3.833080976636006
3685 -2.3598995924451454 0.1124360094743924 -0.21301039794490145
3284 5.487157290853339 -3.5822790350576916 2.9767383451217664
3247 2.48504252736943 0.3405310062841278 0.08282920104731627
3646 3.335929618799819 0.6972263681803957 1.4178170417185418
3689 0.40120438994064406 2.2664318549158837 1.4948930099301625
3288 -2.5021421090322202 0.8787002191568029 4.434941534700278
3650 3.6117122977984435 1.2674016128388355 5.872059898329784
3292 -0.7510161960009153 -0.3984512920445676 -0.11060948039710426
3251 2.8974438656122836 1.6321833052512578 -3.367861205034382
3693 -0.28568815633251754 -1.2429134682214176 0.9315153700999725
3255 -2.448897218611738 -0.17347890938748334 -0.840970297236093
3654 4.349023067531154 -3.2250505525844457 2.875366366716041
3296 -2.517846113755296 4.285174726850998 -1.6187824112886828
3658 2.5230921096406673 2.5674174890454857 -2.9014387050417656
3697 0.3197456136180228 1.662821954778536 -3.133546303420539
3259 2.2478484747853438 -0.7193919075083356 0.7273686454214142
3701 -5.149125703639675 -1.008645776742231 0.5429416132509974
3300 0.40094631232047645 -1.3696862328533563 -2.1729387869167125
3263 0.8655886865064455 4.3865155568654535 2.2514851481441376
3662 -0.31681209755118817 -1.01703981519552 -4.038218392096647
3705 0.5451673772921323 1.602274834997193 0.9137540782187746
3304 1.6175152952357226 -0.1663485261205758 -3.052710740587635
3666 -2.733820942024724 -3.209816502822993 0.7191291529656579
3267 2.2914813465075317 3.0749683131859205 -1.0521133569171424
3709 -0.4097057431791552 -1.5277592237579753 -2.489155756568261
3271 0.622872920527793 0.6595783239796463 -0.7941163047196351
3308 1.6176869792146409 -3.292449526964924 0.9680406027429095
3670 -1.152798903836061 1.6514272191427917 -2.6500341736985855
3312 0.30879978604669833 3.190788696388306 -3.9197688563122517
3713 -5.9938082155229955 0.31948016277193647 1.5788563262627981
3674 1.475904425309819 0.7929352964323275 3.5981571848797795
3275 0.7558104740095581 -0.06613575169121542 -5.118016699410027
3316 -0.08343622954917478 0.13177779795152722 2.1038765979458045
3717 1.7629688427323422 -1.4640135716200893 -0.20976131951978028
3279 2.1375640469178374 -1.695963197880251 -0.5779195309617629
3678 0.5878291250651683 -1.1521836877864569 1.5406951407417266
3320 -0.7990444004169749 2.153045090586224 2.123197475067618
3721 0.07634527207401282 3.1723903527497455 -0.39602955498481696
3722 3.04668231063153 -0.4361980531807808 -2.867155099405759
3682 -0.48538524533810024 2.427274523834939 2.43822449251571
3283 3.7820729472164945 0.24746192835995726 -3.2306502034915354
3323 -0.6137486708196053 -0.5668553847423607 -1.8897461877296857
3725 2.5055197070212305 -1.8409348027666141 -1.7167574367122538
3287 -2.1880267413961096 2.7005026816031776 2.154517994438505
3324 -1.8420831844732208 -4.055395750199627 0.881907749919651
3327 -1.7658042454040794 0.48432687936549607 1.2055603130187424
3726 -2.3555903646584153 1.34964482648884 -2.238297649195308
3729 2.2415973286509785 -2.1369629416386977 0.5663822597277198
3686 2.3238412624478775 -2.026567577292751 -1.2912600041280966
3328 0.798367229914325 1.1528040942481506 -0.4856594582309966
3730 0.17566845354118787 1.6104446737876161 -2.01227145354708
3331 -4.353919957550877 4.2417006824266075 -0.2595747927073577
3332 2.4044984228947492 0.8168255954501791 0.8148269570272633
3690 -0.3994182002193736 1.2674704538559676 -2.1833085407820176
3291 0.06247957587074365 1.9023710448911635 -5.280413532507535
3733 1.3349275112948171 2.092437725101535 1.659016866145495
3335 5.079148420073535 0.031692472372721256 1.5927484707618105
3295 3.5375125284310984 5.036220830659017 2.0126362937077986
3734 -2.6209570204823747 -0.3975896072015892 -4.700626849312139
3336 -3.563914267254814 0.46820833023191 2.6491334447284802
3694 -1.8662924594211954 0.9043029416564089 0.6894266966873531
3737 -0.2908926345228719 0.36691785852669834 -4.519657164924131
3738 2.315060118324511 0.44309633542657895 3.069456974630607
3339 -1.8088771764447489 1.817766225919739 -3.211522321069591
3698 3.655623116519995 0.7917397274336291 -1.4718654481017415
3299 -5.694321270663199 -2.334850545803184 1.5882816166141855
3741 3.331103178867834 -1.5657577890059486 1.4218456329113764
3340 0.5959104231345257 1.3989891148105291 5.014415187370772
3343 0.3874506856330451 -0.9787639551255989 0.38228614153486423
3303 2.222504352642251 -1.0965659272832795 5.0172637560595525
3742 -2.3288391218084725 -2.8074133925949742 -1.4003798330413402
3344 -1.393537612772774 0.27794599374896706 -2.7140713940851042
3745 1.6058357417772688 -1.189875888653233 1.4090121403252645
3702 -3.6364264910838267 5.573284885283527 -4.248825625015308
3347 1.1104023455434628 -0.7461729449014359 2.776368225681665
3746 0.8056245623505025 2.0994428705845314 2.0597772479515184
3706 -1.8949710530267974 0.36358644082544683 0.06117175312826579
3307 0.922348360519346 -2.310793968614804 -1.569227050364253
3348 -0.21258342738032865 -1.059495535378468 0.04419016385462273
3351 -2.5192119342038977 1.6720097037463606 -1.8688589513596412
3749 1.416720003862599 -1.1782511963583313 -0.517304866143832
3311 1.990576932351437 1.514636808397596 -1.92062634770467
3352 -2.767395027084204 -0.6312212743816503 -1.204950830566733
3750 0.34223585371023124 -3.1032658023748843 -0.543866183257066
3710 2.1522183063698197 -2.2122476643175335 -2.285297721857477
3714 -0.026559955242630703 1.4318559834372095 1.6936056249424674
3355 2.723401267729418 1.0257283137899145 -2.137041776139593
3356 0.9214666908308378 -0.18895745058480462 -3.2772613304932
3753 2.612062593621091 -1.286922361920274 0.5742431829579495
3754 0.6274630092018308 1.688174377267856 1.6642062321479356
3315 2.747479328405841 -3.090137109248551 1.1366849682422457
3359 -0.4718958857876727 -1.5348638662498584 5.122601806455499
3757 -3.1565586497959592 -0.12837593828233232 -5.393523814104046
3319 -6.964886293087895 -0.5488370095980617 -0.25120035104033644
3718 -0.8980916121061061 -2.5182152651072114 -1.4051934667470487
3360 -1.274070913367254 1.6378515509610836 -3.389565722024116
3758 0.9338841987987014 3.2757703575935504 -0.38757226743713047
3761 -2.002629003717568 3.144902979337664 -0.7640374986099737
3762 2.718502689111567 0.4171299264324722 0.3335857462771873
3363 0.4703872241234451 4.365450616907176 3.2587779992092543
3765 0.6124216201932668 3.281634717222304 -1.9673030762420736
3364 0.5504844580813879 -2.806395958684147 -0.44486088103749105
3367 1.0524032173049365 0.2796149506628947 -0.3733926428979344
3766 -1.1417547841534845 -1.309417328682442 -3.422246114746669
3769 1.818646366099816 2.6743135351482463 0.36308377959829097
3368 -1.1688677986074378 -2.571353020761248 0.6495962933206885
3770 -2.7481516914495563 0.369169848312841 -0.8218548455319702
3371 1.7367644900409671 0.04846999548780687 3.076408364067367
3372 0.6664844937950856 -0.8587196961285417 -0.006312275207535624
3773 -0.6476431071357155 0.3221990991784329 -0.797219554134232
3375 1.770928358711107 2.840491945369799 0.7135000213781535
3774 -0.8628162377562766 -0.907008029419938 1.8718876238724609
3376 3.6372603188306893 0.4415485262250524 -0.4815132669054651
3777 -0.12812144969365447 -3.4750461355910343 0.9068464511985583
3778 0.03657564220588672 0.4321671747221345 -0.27501477174423217
3379 1.188567525929172 -1.597514229886757 -0.604595330477513
3781 1.132232032093359 1.662758957855212 3.4045092326398563
3380 3.4514135428802843 -4.045204715989453 -0.7749315625968464
3383 0.3476632535113372 -1.7927427260766076 1.4398766631904003
3782 -0.6986526018524382 2.999191701346934 -1.5516312243710564
3785 0.7564641835376453 0.4025996321327261 -3.8126485369660656
3384 1.1777646190694837 -3.136944892945807 -1.7882721967777708
3786 -1.70296517651731 -1.1601044553076783 2.0278153110867527
3387 1.6474034793064811 1.56074546322353 4.82206000722993
3789 -0.3999203483189898 -1.1881103712331451 2.1191626647214012
3388 1.8272618208412867 -0.9090489927846364 -1.7667778497733644
3391 2.329627283405026 2.3492341503381247 0.23337958009705698
3790 -2.8754538430418655 0.8738707563408521 1.19176249225349
3392 -0.966020808992576 3.901976085005787 4.974998193547522
3793 -2.7400543135461395 0.8070006633526308 -2.7836407926032622
3794 -4.39509995618908 -0.5398218777721614 -0.3302891575408415
3395 -1.3470443016205202 1.4638727822016404 -0.7615917795140286
3396 1.7647577381270723 2.3384737836028453 -0.5476646074037538
3797 0.4422643220043263 1.5940969807321481 -2.9693379698316904
3399 -2.8752962305326584 -0.3148900997578746 -0.28178256384790146
3798 -1.1102568857278798 -3.356656826230457 1.4666132139573185
3400 -1.2228436486651704 0.24116156395066843 2.722267605916161
3841 -2.0907395358702514 2.6193706488073456 -1.6558722443567002
3801 -0.2512845008562531 -0.3553735490530803 0.4040501978302916
3802 -1.4214442754469656 -2.3365099906715083 -0.02658434657042069
3403 0.3466710806675013 -2.1518513126231595 -0.7459281739290946
3845 -2.454367224250517 0.4244491782772939 1.644399947489663
3805 -0.6003906592411137 3.3155725501171953 1.4499351480459677
3404 -4.090877442367803 6.7472420292335205 -1.581693704408022
3407 -2.0008833267623003 -3.6014468402735824 -1.6340857198202732
3444 2.454789936294931 -2.992524780301681 0.012910062979749622
3849 0.6259968292861748 -1.9659303065973572 0.4841180230005353
3806 1.2200153933445301 0.2486026454197662 1.7505886301929314
3809 1.0009728196406937 3.73547354172008 -0.7089818409330824
3408 0.8310227460040278 -0.5012341375592341 -0.6795329997185654
3448 -2.5325445540689606 -1.501851103843653 -3.498429710063449
3810 0.2998098087759133 -2.435476983273511 -1.9223430049808907
3411 0.3282679035938592 0.8451278357721868 2.7117186007855953
3412 2.0650033860432093 -0.7461253660392562 6.064426420929992
3452 -0.09228379699575809 2.4948950498674414 0.2400267912124623
3853 -1.0639682193865359 2.5229009421118564 -0.7038424631654047
3813 2.2903880994878887 -2.02897840642653 -2.2942364684327727
3415 -0.36476771723694035 1.072845793331426 1.9841587891001724
3814 -0.3111993454733379 -1.411337123762454 -2.208030539615808
3416 2.5888017253439015 -1.8495388017173544 -1.3529561145927125
3456 1.2377561500534313 -0.22627293525518022 -1.4128666174025641
3857 -1.30031380606259 4.200897902154077 -2.2614252980475675
3817 -0.5656655512956331 3.1997254240999626 1.5885295485349669
3818 -5.962668557309689 -5.485297696354534 0.4354671761002549
3419 1.983246280372229 1.8663383213488878 -0.5078658833827278
3861 -0.2831765743611975 1.4077239264797103 1.9730186329075994
3460 1.1059396778837602 1.8613361888261988 -1.9011320454954825
3821 -1.0414451437678358 0.4519553997730052 -0.15620211569638606
3420 1.70998018042715 -2.6662454972580223 3.358159549527358
3423 -5.57555856639811 2.0146466246189414 0.24172737582237155
3865 -1.4465097702854581 -1.1515625684074664 1.0964805589572413
3464 2.6694287848772333 0.5399887401605441 0.35045274621632216
3822 0.7346260390256022 1.6116907993421379 -0.6644860447871891
3825 1.139676585304067 -1.7314921390006754 1.71205815906844
3424 0.09247776696955579 1.1901764729647109 -1.8912935750362194
3826 1.0949622662035647 2.614416895882162 1.8485147207838863
3427 -2.4546372546725435 -0.8124521319134103 3.1393079718447257
3869 -1.3136677946593582 0.5546074453712035 2.1461665383008652
3468 -1.9817561722162296 -2.2815832303907624 0.8530144564313613
3829 -0.9726394325295464 1.6014766233971909 1.2074814272178669
3428 3.5097016592275003 -0.8510118147818029 2.3871010607994756
3431 -1.9380677314192405 -1.1394084884070976 -0.05169178894210643
3472 0.7756591013337717 -5.398659086411505 0.1774536164222648
3830 0.46663722805590924 0.09766557593579732 1.0103932630432717
3432 1.5168174911950807 -2.257927123747743 -1.4476701395414808
3476 -0.6495547973878734 -2.017995266306119 2.181198399020761
3833 0.0020180781254678635 5.312383992096944 -1.113983815155426
3834 1.5524994917358512 -1.19860257401855 2.391519960157552
3873 -0.2718066242907539 2.8442682078182986 1.7193778647158642
3435 -1.5383885290785875 1.9415310706682143 -1.7795577165224423
3436 -0.7029943414425407 0.7267115348440637 4.492063382286257
3837 -0.4823130265449751 -0.5261451467066914 0.33922217265129795
3877 2.2237849641313554 -2.0995849493631464 -2.698549468145992
3439 -0.2110762945646874 -4.409096813326677 -5.764470889220877
3480 -1.815117915406154 -0.8958707469519107 1.0734481801890505
3838 2.616098528976503 4.050282087027986 -2.1438985023052193
3440 -1.8170126836173135 -0.04026497032023692 0.6290403653154719
3842 -0.5241779661171228 -0.07821104689168615 -0.8885337599381907
3881 -2.59762729836128 -2.139473467496754 -1.5219147986734614
3443 0.33613429590164123 0.7574326432161979 -0.03523036062721413
3484 -2.965324138011689 1.701442747266443 -1.899445597832111
3885 0.25434797938525916 2.0565272068531635 -2.5184561572828406
3447 -0.4620173934145184 1.5810455217384065 0.0742567844179148
3846 3.830256317905559 1.2249770246568674 -0.44873345501797735
3488 -0.7667221606131789 6.402308299493494 -3.1351863967864584
3889 -2.004298427211204 -0.7850455316605693 -1.168225606282434
3850 4.2514246346169 4.852810517458534 -2.3742713778028826
3492 -0.4730021258794897 -1.2995658241630437 4.968228191822695
3451 0.26288549379934256 -3.0433542681787644 -3.471708670250752
3893 -2.8631581369869488 -1.0055521313248699 0.3231068138203981
3455 1.9537582416494008 1.9620745011779452 -5.294568711101375
3854 -3.348285594123141 -3.6271849313901816 -2.42076703585615
3496 -0.7911092893912716 0.9341364603804685 -3.5752297901463015
3858 4.149434971712846 -0.5051158632215901 -4.223325595901485
3459 3.497801419070836 -1.6036378483346658 1.3771174473404753
3897 3.190930842270844 -0.5656865326167921 2.2690297338768013
3463 -3.3989999444213224 -1.2722704705874306 0.10222282399629314
3901 -1.697174377300276 1.900279441681447 -3.8512848516587677
3500 -2.1618396065938468 1.5506326017260244 -1.53220542337125
3862 -3.801149329348231 -2.9383313702219422 4.717334895653996
3905 -1.4661786415603826 -2.428348272937433 2.869732811495921
3504 0.19647260076428302 -1.6415182027643151 1.7560068410465894
3866 1.4646526720226136 5.960917409615713 0.7820908255746887
3467 3.0834141175271816 -3.575282573029332 -0.08493877748227058
3471 -1.8175908773431824 1.252678743500558 1.3430264132572747
3909 1.8866171897211599 2.1048108061261823 -0.4915782910655966
3508 3.6061980092593653 -1.7609513134318582 -0.7306129333246522
3870 -3.3388856584994326 2.5537991176449295 3.6380957882888887
3512 0.7625531673345471 0.7365044032124519 -5.650942487098738
3475 2.761466094253724 -2.739415032136667 0.22090104605068445
3913 -2.8036720829564445 1.6589274271439165 -1.4603923969915373
3874 0.029024391720731256 1.7355002355234257 -3.0111970504586667
3516 -0.6414447059489785 0.39437142587847857 1.854590980350899
3479 -0.6246542775580562 -1.6539391529119318 1.2776718125875564
3917 1.6015970760820506 1.9032290803223741 0.1081688116583213
3878 3.327506892218119 -2.32248855098225 -0.4411090961382847
3520 -2.645498079465416 -0.44680834905656935 -2.491762280722567
3483 0.5645392373506355 -2.4201080782172797 -1.253505825674408
3921 -3.6592121141130685 1.5797191678225035 0.3495857518047909
3922 -1.6114641829600176 2.0415347783699986 -0.05838178177144845
3523 -0.06512200413440662 0.9250099994960446 1.1088208233794898
3882 2.4046422114433463 -0.4600290458878745 2.634884163285891
3487 1.2462406386550338 0.7883160638881402 -2.307171032966619
3925 4.020160253386 -5.080450218983979 -1.2235483454461429
3524 -1.4625825372697632 2.6394697690387017 -0.07752105568511021
3527 -0.3454995837004036 0.3435203475314076 5.703513960517028
3926 1.1145512948792846 -0.5987954046393027 0.8440444737702074
3929 -2.335109142384821 -1.2838274780169825 1.0487361288016204
3528 2.5598556093594422 1.6014166935097658 3.4160639657793563
3886 -2.1947071016187927 2.1212645162340285 -3.0302816982735212
3930 2.3914652035012725 1.7961765142654913 -2.1790365038534474
3531 -0.16709668745690448 -1.3156222002999476 -2.425376270588475
3532 1.5067608007527025 -2.825595811151165 -1.583229039639117
3890 -2.6835070613800225 0.9667826477075239 0.3415055890476973
3491 0.8215766411344024 2.3776437128987657 4.608998475906144
3933 -5.506738203408104 -0.9206731345794973 2.8549125772006763
3535 1.6425985478100038 -4.619947583257516 -1.2333693151721912
3495 0.25043726282469086 0.4021132590484976 1.2998385869826354
3934 0.23323667867893783 0.5244391902210671 -1.0636873850429762
3536 -0.5186839169295285 -3.2053652926780223 -0.673593623370547
3894 1.963819807410842 -1.9095666611267001 0.6320711559631073
3539 0.7154410919052506 -3.0246757388540733 -2.5440325470795555
3898 3.0253930680589938 -0.14587040813549634 -0.9399189934572681
3937 4.18379973719874 -3.8470148898968484 -1.7233839072634631
3499 -3.4003045198153523 -3.4183853567527995 1.8143315363694956
3938 -0.7301753665964523 0.37974491144101635 -3.0803650655715398
3540 -3.5241435136958907 0.7673535231284229 3.4785388427756576
3543 -0.39603889754541066 -0.15211719679147548 0.6319231408436938
3941 0.3115533160026359 2.6461467013852618 0.7699401986939923
3503 0.3245508752875722 1.5752569891709223 1.2166140608709095
3544 -3.667142296552361 -1.6303289688295615 2.5256660884261435
3902 1.93717699094027 1.6528110096211464 -1.2599127385498192
3942 3.8159543240505123 1.8183374827315522 -1.5704769593770482
3945 -5.047352662317635 -1.6213878030384392 -3.4117774635260436
3906 4.937714162089159 2.872925413129421 -4.027936583291238
3547 -1.0988888583186711 0.4762541373036493 0.25550117223288316
3946 1.484786884833624 1.513168780402697 2.226690687308674
3507 0.17677603533666789 0.5556713587121276 2.5253362398291888
3548 -1.557455281437484 -3.4647104228843575 -1.0076549587277286
3551 -3.432340379602082 0.08746310259023335 6.58287272612371
3949 -3.318822999126883 4.312139125264427 -0.1526255086853721
3511 0.050381240514207705 0.11254356027892026 2.466783225756459
3910 0.2975368479749794 -0.6447724341095357 0.7063644084760199
3552 2.0439006501899284 1.2773860294827455 3.7618769880208127
3950 0.14566823123349718 -1.997526820493805 -2.319888101498174
3914 0.5490849065874972 0.5053347990121355 2.985685763713612
3953 0.749603961871047 2.736972233024959 0.76554548955156
3515 1.6234356412618753 -1.5373962095444444 -0.5819091786076305
3954 1.5614375371824334 -1.563529647255953 -3.6546434605783444
3555 -4.203466348103922 0.34014636450974434 -3.114303009937123
3556 2.161824018270695 -1.597888220707199 -3.0658784777610397
3957 -2.7299763564235073 -0.2559329281663611 -2.929966828575071
3519 2.013275241151411 -2.761121783664691 -0.9979184042168773
3559 -2.078237889414939 3.0235812460396136 -0.7801382876105094
3918 -0.2554032342982289 -1.9553056218791791 -1.072009421184226
3958 0.8088835422200117 -0.170898647889042 -0.5020492126425672
3560 -2.6715495428739158 -3.613748153405628 -2.449853941765722
3961 -1.6597186462856204 -1.4584438218093199 -0.0613014374077909
3962 -0.6673330266682563 1.6223954930591895 0.09883541964574283
3563 -1.6018643283504614 -1.7548327628011873 -1.5658430529165634
3965 -2.9851059222570684 2.1876826437938957 2.406055804865076
3564 -4.195170782311216 -0.5511638297859172 0.3289548825288774
3567 1.9754973791800672 -3.550611941604275 1.9536064350232363
3969 2.274952286246692 4.010874224445346 2.000829091760417
3966 -1.675614193300246 1.4617081218753551 1.8573367334338178
3568 -0.28596028684225805 0.41890920145439053 1.5433605810142619
3970 -2.8435775987249796 0.27991878346869276 1.0659703810974877
3571 1.0820229481552441 -0.7800325601186138 3.617868881903957
3572 1.64738227000082 1.9345864833855377 0.013671972357456468
3973 2.4813912684274153 -0.17777348183410935 0.8959923004548181
3575 0.5735750747841734 -1.271554602890861 -0.19665595534624103
3974 -2.1847666704387967 1.3028907794529494 -1.5634940587121546
3576 -3.344269951097769 0.3362521844805368 -3.5314260337495234
3977 2.191419384743424 0.9211395535978242 -0.9376831928332677
3978 1.2836648765587144 -1.338964413563557 -4.489691481733528
3579 -2.9031399774598663 0.07752248627098278 -2.325249157403044
3981 1.5667200539429764 1.6033169734942827 0.6118298296530029
3580 -0.5147618121641795 -0.9385867774271062 -0.04786797729123714
3583 -2.679089538089209 -2.81455321818648 -1.419993973965871
3982 -0.4512850391387928 4.480542259458418 0.049786112230922615
3985 5.481171048949912 4.103691686629484 -2.426451496308437
3584 -3.7956346294232377 -4.9751372195273875 1.2649171137688484
3986 3.5874142554937616 2.0760074894497373 1.3914229193507421
3587 -4.240478783541881 -1.979946277845526 0.8842603527235735
3989 2.2549683229669855 -4.8027114725860125 -2.471372701438409
3588 -2.3016412139134728 -1.7831979800946474 -0.2746349219913988
3591 5.011202044309245 1.235106623264021 -1.6494805114571902
3990 0.7585181558540105 2.826845102244423 -4.887437356250635
3592 1.8550803176146369 0.13082321942741643 3.774514543902723
3993 -2.038179770781193 -1.3771669562188988 -2.824572611465231
3994 -0.04645178644641347 3.0062381550647372 4.087410460410752
3595 -2.665528543015105 -3.3796044703991863 6.071254069834313
3596 0.9179955534802791 2.56925330345553 2.5488095282348664
3997 -3.095731120505606 1.8998017611469558 -0.4955128607281833
3599 0.6618971674506892 -1.7509067764895052 -0.07825580071952952
3998 -1.4004022520044233 -5.192470090985585 -0.2724377579277389
3600 2.094525566673868 0.3183080004435844 0.1849903604543247
3603 -1.16558050832946 -2.40571708928121 1.8578132475694022
3604 -0.3496610941359758 3.0967332973307955 4.6423488449534736
3607 -4.115989903930073 1.0463727805056167 -2.008615302098023
3644 -0.5981941675150503 0.9633090901140651 -2.619599919491531
3608 1.4868584570108283 -0.16410115657021207 0.022437030978521455
3648 -1.1729713118513658 0.2502896715971059 3.2839301383979715
3611 -0.7797257160611565 2.9270858427871627 2.0364785151186657
3612 -1.5721543481980187 0.0808111512783675 1.4907282351012152
3652 0.03963008079426591 -0.5134330168812921 -0.8505706072911597
3615 2.5535001864384346 0.5309279096156175 0.7651040318834084
3616 0.19132865093217047 3.4853348275621805 -2.74974115828331
3656 -0.1689137071211235 0.07521615639157787 3.036175107202579
3619 -1.5591272916746426 -0.043056153476282596 2.5646295839964344
3620 -0.06086283999988574 -0.24283230293908936 3.6462859015083846
3623 -0.5310130797930757 0.40074943896920967 -2.0055039252534512
3660 -0.10581932439341224 -3.5699760503794336 -1.3286749612718673
3624 2.6039476574271325 5.014870607221378 0.015936670479535515
3664 3.5237205579068442 -2.2515134363487386 -0.4297013188497697
3627 2.6664284117505512 -1.1612549031115347 -1.17809603714882
3628 0.7424761199220016 1.7180132110258683 -0.8066131944055687
3631 1.9979429964003539 -0.8482524636490238 3.912939196471323
3668 3.5541703045999857 -0.28493682112679364 1.5819129794102902
3632 2.673206462910609 -1.3682645273825926 1.4664762461751826
3672 0.21625753511464677 -4.952413238684571 1.1282773169794091
3635 -1.709023549051444 0.4409187106252831 1.1006259379183452
3636 4.771683850220529 -0.3017587129212505 0.9117737236670828
3676 -0.29021917271122627 -1.4391416445666565 -1.742962592288017
3639 -0.9998333864600464 -1.2881278722170544 -0.12331687901760838
3640 -3.467014066109013 -1.59823809196442 -0.75342838960959
3680 -2.026721689428542 1.7641899236614342 1.5927722857595628
3643 -0.7750941042961887 2.4036094625528643 -0.5047003706221191
3647 -1.4252745702662932 -0.376305940460312 2.816452376358488
3684 -0.5185140145200928 1.6368970223019146 2.167747308380814
3688 0.9918769989352808 2.0705837815307677 2.43792097379527
3651 -2.02159551664935 -0.7957468469237969 -2.2242509477964156
3692 1.217060834720205 0.6100408064469439 1.4823115335455639
3655 3.816202419731211 0.9491807797457239 0.9630960229431027
3696 -2.5453041738293836 2.673908252126376 -1.0478054412428666
3659 -0.2654475135658094 0.8485801207952957 0.7437816964832249
3663 -0.22604061738961623 3.6600712798602424 2.3698530390687615
3700 1.00115013286864 1.9331432944521103 1.1604831939370903
3704 0.02941564848167009 0.3342149048255843 2.26585555074234
3667 -1.9088809041286932 -4.3821129252195625 1.130099114854375
3671 -0.3822515748422625 -1.7065273726312153 1.1132141449509176
3708 0.8611922885271658 -2.2008692990297916 -0.910002105594519
3712 0.9928120559587643 -0.43166675209403677 1.4372280852435901
3716 -3.575316503384904 -1.6610532737600427 0.46688689676054207
3675 1.1803493626072545 0.054248361084823456 -2.3613822697588174
3679 -2.138471326920194 -0.27429920892232657 -3.249509844086659
3720 -4.22771067480986 -2.5527770218328896 0.37172366849129046
3723 0.09482383103231043 -3.045469339280563 -0.327608494948025
3683 2.315304302847396 1.2015583572683293 0.39432610795569717
3724 0.23667109863454486 -5.243284172701046 1.6998548728420475
3727 -0.6491133644778591 -1.3840512779242118 -5.727949339771243
3687 -0.5848778783067489 -1.2249922974790128 0.5736254235378574
3728 3.402535155340667 -3.3286219911876582 -5.5512000257178045
3731 1.8724212714339243 2.960089683361547 1.7616980570225946
3732 -0.678092039519945 -2.7078613760199257 0.4542036290335528
3691 -2.819312131078454 0.7009298172636865 -1.6061674897415479
3735 -0.20470948340044162 0.11071649891523622 2.615075485309071
3695 1.3530894594299958 -4.114798238430162 5.408516703432806
3736 0.5611710977648982 -3.24046304534893 1.7077488801693759
3739 1.8120607441832484 0.2510058887609219 -6.075111128188774
3699 -2.448296639497734 -0.017337711495951782 0.5857428742218189
3740 -1.1518387809654305 -3.465736953324123 2.772891427998748
3743 -0.8815100432849678 -0.8629552533000555 2.0563284018224115
3703 -3.886706414236419 -0.018187616213048208 -0.24072134109097149
3744 3.2625490255621465 -2.2969267034763523 -2.262137910658159
3747 3.637973698422284 -4.1441409987793145 -0.4885820381710894
3707 -0.4889366106443918 -0.9955381927927195 0.7847525652889946
3748 0.5517171876160291 -2.8386678349464822 1.653808002548763
3751 0.9860141685830754 -1.2152598980869993 4.768124055697742
3711 1.1550455702175524 3.6334890220062728 -2.7052969344550233
3752 -1.330055809261101 1.8592568947402466 -3.7019177376850996
3715 1.2262536780046345 3.605226727118954 3.8255109234629336
3755 2.1174655666099507 -2.5527076521446332 2.7138040323823307
3756 2.9468545247219615 -2.354453014495236 -3.966879642372044
3719 3.6347914716431964 1.2100913479368582 1.0902787206194628
3759 -5.3298561510236215 -2.7410026468072837 2.9428399608951423
3760 0.8379495083046242 0.5025838086506678 -1.8510130378246428
3763 -3.359225174190562 1.249047100909349 -1.659574761969838
3764 0.9229126870041781 -1.9503483974638325 -0.8480985233274233
3767 -4.762079319790113 3.589504474362628 -1.1044711763222073
3768 1.3346159791725798 -0.6375718151571435 4.960552650005924
3771 -3.9763295032126598 0.651610597586674 -0.5002021783055103
3772 0.16741629729500054 -0.4229065566562499 1.6027779263072721
3775 4.3230083011353235 -4.040078778704722 -0.35925475559655334
3776 0.6950381281365745 0.6373141000333044 -1.083684692814135
3779 1.5681855629053691 0.9359490185331865 0.23564087467513253
3780 0.83607758027959 -1.512977825659847 0.022922445390112657
3783 -1.9455906605223963 3.11908779573835 1.808342134826269
3784 2.5360226429586095 0.41213522576949196 0.7411648096721619
3787 -0.7099368152535617 -0.024448109518540505 2.2877081046621495
3788 -0.0823777846780358 2.8029817476494663 -1.9978350588140785
3791 4.763347412717273 1.8243141241109808 -1.840537146213884
3792 -0.16296671863118353 -1.4538493088987903 -1.333298463268437
3795 -2.1398790210413803 0.8113931399365029 3.4050626353546445
3796 -0.9889869820594628 -1.3280772839105632 -2.8019383665004702
3799 -0.2575489700078239 -0.431143834169411 0.5115416971439251
3800 -0.2698451473769091 -0.544666573676848 -1.913081392009062
3803 -1.6872694841587017 -1.2598293384898491 -1.2336868043803533
3844 -0.8874554288998505 -0.5496696098188351 -0.12417014209110398
3804 -1.7188416621414877 -3.5022351587661587 2.3991148744829087
3807 -0.6748563232761398 -2.2195981521137376 -0.5190953993626549
3848 1.8481578819087228 -2.9704369448465315 1.6521028582076396
3808 -4.152500576801128 -0.1319137512355576 -0.5116912168272916
3852 0.3926038879811438 -0.8152144238569926 -0.6136538152537012
3811 -1.5483206111667283 2.8453322886626 -1.40857038789636
3812 -1.1521745920466662 -3.274995366784134 -0.9471617283394015
3815 5.462037509275245 -1.6023967727014874 -1.784668550418691
3856 -0.23431583324035996 1.4740599499092428 -0.08607134035191051
3816 4.014383623608864 0.7825946520029563 0.5369119910336193
3819 -4.04761933076987 1.7052785969396094 -6.227488284277071
3860 -1.8299002646510698 -1.1840290554426849 0.3660237361609391
3820 -0.3024358640883835 0.1556708403346389 0.275570792749142
3823 -0.9314592730062802 2.234839855488594 -0.7357340364456354
3864 -3.7226299426049563 2.5733270624551516 3.0598326016730737
3824 -1.689176920612769 -0.3625076345257848 -3.3188611327526663
3827 -0.5778793515637074 0.6423329709979644 0.8499523920763211
3868 2.436507058101226 -2.7455207588080017 1.8841436678037233
3828 -2.3874226901582842 0.08214780598045023 1.9533109208731834
3831 -1.4394233592231918 1.1484093835567701 2.3045885002085313
3872 0.5523603389205367 -0.512622441926432 -0.8053425627709412
3832 4.034459678686502 -3.168241748291933 0.5129505008503621
3835 -0.9433803197350885 -0.5863752757484422 -1.6095941502065392
3836 -4.847337983271777 2.566036113862045 -0.909177992999448
3876 -0.9106648458902205 -1.822227624751088 -1.3892024496992061
3839 0.488077940805416 -0.7574426448347221 -1.3341387194940415
3840 1.1909581492667722 2.1363219532915245 0.08466156238202066
3880 -3.4380290166014915 -0.6899015384324293 -2.2579951438582233
3843 2.8515212074596876 -0.5898586843885443 -0.8881566784661835
3847 -0.6901003947588731 -1.3426639865357568 -0.07897043862042442
3884 2.205471807323279 4.347698952701807 -5.9985874996561375
3888 1.3555114091374993 2.9436769602329953 -2.182655375753083
3851 -1.5429706897806181 2.7267665509104178 -5.6076840746271275
3892 1.4170788285100695 -0.3976269001086671 -2.638952184151166
3855 1.6526536376185197 1.6516414206183416 -0.33759324081579417
3896 -0.7410288836255097 -1.0219433413942982 -0.34338794499144015
3859 -2.1075261885580483 -3.877364124120523 -0.5052126865012769
3863 -2.3904426310993934 1.209153970978838 -3.7965161614094556
3900 4.024637889132148 0.938980796253487 1.6319320110853544
3904 1.2425166273733632 3.2363843040435016 0.9176654603615272
3867 -2.939554774808031 -0.24014078447844783 1.6393596923098859
3871 -0.4709199884426943 -0.4361136816705715 -0.9695103439029675
3908 0.8544511283598983 -0.1452242194622779 -0.8609502254085928
3912 -0.46960585618891637 2.6330142636800256 -0.6999036383656765
3916 -3.700274522235131 -0.5848484020716518 1.5936109343294271
3875 -2.0657636909231005 -2.2142764854652683 -1.1682049491418807
3879 1.0001954764609067 0.9708035809172636 -1.3739288951459365
3920 -4.01015528990426 -2.1023484930945666 2.0020213526847863
3923 3.948703110895085 -3.1665181987236255 -0.3853771514949539
3883 -1.6797727143489711 -1.0502176410005197 1.2381329263242593
3924 0.34808864384544747 2.977683250282211 -0.019930888586319466
3927 3.069822772222164 -1.8670665631566468 -2.877462039465374
3887 2.1955401532634515 3.892350261794393 1.1760800131154139
3928 -1.6738570272314794 -0.47780586931927466 -1.975763528172266
3931 1.3128325159295686 -3.054771635906819 2.3029407462592046
3932 -4.6372205953495795 -1.6147166189581188 0.772963425650675
3891 -1.3863259308929872 4.303962889980303 -1.4795791308197166
3935 3.809855799002055 -3.309176921749504 -0.2335133632104182
3895 2.026054729632294 1.0766433283915564 1.7628444051941254
3936 -1.1174683592986931 5.815466126931501 0.10106961621622303
3899 1.7896423711256888 1.114550694172719 2.0807086688855696
3939 -1.9553979600908344 2.475015823800563 1.890267135752193
3903 -0.15322031711108394 -0.2403792150924346 1.1600453305480791
3940 -2.0593373182535992 0.5020460065159245 -3.572837648051138
3943 -0.481331815514159 1.5131180108887199 1.0719464647525028
3944 -1.4205332661694459 1.8119944477171015 1.7725175109956381
3907 4.03144533173614 1.0613609644682926 -1.7612377404127288
3947 3.5610202415546643 -3.682784929761605 -1.0397208142946432
3911 1.094252478133014 0.178832495872494 -3.611649569360379
3948 -3.919597720492626 -3.1371303088755846 1.588957665340958
3951 -0.24666468124913601 -2.577062190032325 -1.0529819831148686
3952 2.393079716964029 1.701287512743232 -1.6188410459335971
3915 -0.6578912997068861 -6.241977427103248 -2.766540360518738
3955 4.5356867693625 -0.24560606704753835 1.5190540940765598
3956 3.5638766321853184 -0.9910693107592625 1.5807746805026524
3919 1.021599845464286 -0.1810280964697983 3.549055780024568
3959 -2.9053956155779606 3.8261619959562556 -0.039786048458215706
3960 0.6838695314285692 -3.422742488879763 0.8800531699628215
3963 3.3407298413753184 -1.0141571653774115 0.9387802768086887
3964 -0.8625421424182041 -1.5166349927478804 0.6678797977839975
3967 3.3744274263545293 3.9414566425559405 -5.78457542184925
3968 -4.725125339435062 -2.6271575460824037 -3.29774346358014
3971 3.525453055356636 1.5590581151498246 0.39682585914952057
3972 2.4141098959071448 -0.019762834241141215 -1.0993592988602168
3975 1.7463784339330342 1.4443947192826692 -2.2244107382328293
3976 2.4454112692956316 -2.098091067369221 0.5741345395816796
3979 3.8451278320707583 3.4368329244125824 -1.2664415191125098
3980 1.1991214502846115 4.661018663835772 1.6615376376320636
3983 1.0315420464497524 1.1647676964393945 1.1572877833256374
3984 -0.2125671193531643 1.37267295854652 2.411421336562335
3987 2.6833963239347893 -0.8677067191590933 -4.563706366868772
3988 0.4074673632341992 2.323662678670312 2.9806693547733514
3991 1.25796584360919 -2.242410980941598 -1.113638892077081
3992 -0.4035395861713136 2.422354178520961 0.721514260143809
3995 -1.6944160858579427 3.3828243498550243 2.527974663177672
3996 -3.2573378311338272 -3.6482574702896717 -0.5853473984801164
3999 -0.9938471525653986 -0.5875359607063689 -3.1448712902680054
4000 -0.055982227289118634 1.65720549003002 1.0532900652908161
