LAMMPS data file via write_data, version 22 Jul 2025, timestep = 250000, units = metal

4000 atoms
1 atom types

-0.4779851850974772 51.57348400837473 xlo xhi
-4.500634706191754 34.000634706194475 ylo yhi
5.810025071718096 40.989974928282074 zlo zhi

Masses

1 47.88

Atoms # atomic/kk

1 1 0.5244311151651802 -3.424643050010797 6.162116385046607 0 0 0
401 1 2.310244618764177 -3.493256260339429 8.451416839253179 0 0 0
438 1 -0.4111737588009663 -2.031774133813075 8.417522024345004 1 0 0
4 1 3.2524153627238985 -1.9544328445407553 6.182316883236955 0 0 0
405 1 4.815432916910636 -2.0783570526215627 8.42304774242871 0 0 0
367 1 5.861778831079431 -3.489954771119026 6.20051790821152 0 1 0
8 1 8.415080442143859 -1.8717708071846584 6.296793546260383 0 0 0
766 1 7.54931639992766 -3.5125296531545023 8.428932884517616 0 1 0
409 1 9.992243709958013 -1.9647313931118298 8.67217594414671 0 0 0
770 1 12.669561893908496 -3.593051237555084 8.677899968326756 0 1 0
371 1 10.991650758501958 -3.499988021878778 6.2889964236739875 0 1 0
12 1 13.423442281172392 -2.1067375697666795 6.432461830422109 0 0 0
413 1 15.17067149280304 -2.094597930469733 8.620224135989304 0 0 0
375 1 16.12886036237624 -3.4349793199630696 6.26318532495883 0 1 0
16 1 18.615372205612136 -1.994456072406095 6.339964112988048 0 0 0
774 1 17.716606558500576 -3.6409475781938436 8.565456382285335 0 1 0
417 1 20.192920329158554 -2.0661127840535327 8.57216433168057 0 0 0
379 1 21.215149926569996 -3.5032418811391963 6.182757573513954 0 1 0
778 1 22.865200703060893 -3.466985828397002 8.668021699615045 0 1 0
20 1 23.790987930434586 -2.0014675482169832 6.222897852963305 0 0 0
421 1 25.564201565690066 -2.038329600117667 8.57970227693124 0 0 0
383 1 26.38234270509002 -3.4335918127455143 6.337487440959408 0 1 0
24 1 28.874806795882833 -1.9629135656616952 6.356997923642037 0 0 0
782 1 28.003387939484686 -3.482173276354024 8.439005093237387 0 1 0
425 1 30.81685601302792 -2.0419517961769915 8.6005231018046 0 0 0
25 1 31.663208905134955 -3.3722725617030456 6.175934622030798 0 0 0
387 1 33.30761203573681 -3.2982426778835716 8.596884924294846 0 1 0
26 1 34.08071485498347 -1.7724653547616294 6.181179880787342 0 0 0
29 1 36.742887503229625 -3.355619168945538 6.186403952748617 0 0 0
28 1 35.96105924467008 -1.9051441025568399 8.404986060910645 0 0 0
73 1 39.23192836805654 -1.9105883179830623 6.209526348253267 0 0 0
430 1 38.302973626698545 -3.251045055564899 8.506249364356949 0 0 0
433 1 41.011298236596915 -4.4025162487516525 8.539257678626406 0 0 0
34 1 42.03570919180635 -3.087096612445489 6.376651931498134 0 0 0
3676 1 44.46135035653157 -1.587075298280853 6.264493252981415 0 0 1
434 1 46.33006795177859 -1.8520009959348376 8.534803260859182 0 0 0
3639 1 47.2776595615059 -3.266046434072858 6.166170884729143 0 0 1
38 1 49.95290672802686 -1.8424006732217912 6.2739251476158655 0 0 0
437 1 48.99320417160449 -3.2989615179706773 8.367359100461163 0 0 0
3 1 0.5639780712463729 -0.4898327126658728 6.1674972642273245 0 0 0
402 1 2.143791288056507 -0.5239624260856472 8.429388828256593 0 0 0
441 1 -0.3950967472048481 1.0050380345890861 8.504431207052018 0 0 0
43 1 0.47055454991065016 2.4598273477112764 6.297072698935732 0 0 0
442 1 2.2399949932900993 2.3641532504479743 8.57568408354484 0 0 0
44 1 3.1764076957582885 1.0185914346243017 6.334088981023993 0 0 0
47 1 5.680052156776326 2.3565902884996675 6.30849056865591 0 0 0
7 1 5.808824718288467 -0.4544627832035717 6.308541254196711 0 0 0
445 1 4.953592480132658 0.8709609610842977 8.474800001115348 0 0 0
446 1 7.45348180542844 2.4154204452817885 8.55849700625905 0 0 0
406 1 7.429399048708769 -0.6719767345088234 8.58025458146969 0 0 0
48 1 8.333870207746617 0.9187031058739672 6.139527669064774 0 0 0
51 1 10.998082251097973 2.368841784056528 6.3887441695215195 0 0 0
449 1 10.087873667880386 0.810585093932116 8.634048864267262 0 0 0
450 1 12.627122819247594 2.3477659997037543 8.550424370353804 0 0 0
11 1 11.004662064149988 -0.4674109548740173 6.308463970481544 0 0 0
410 1 12.648089646681653 -0.5316993990959875 8.649734452525655 0 0 0
55 1 16.056554651918027 2.2734923023592897 6.384295982039281 0 0 0
52 1 13.572362130459013 0.9365578119161455 6.301580159870415 0 0 0
15 1 16.12692348882649 -0.6128426672423313 6.358313719952096 0 0 0
453 1 15.210333269050752 0.9201618691868365 8.668970829137338 0 0 0
454 1 17.811991277893124 2.4750767559130953 8.619549781558073 0 0 0
414 1 17.809096408984203 -0.5665309720310936 8.621237599365886 0 0 0
56 1 18.637132395665127 0.9884060857164236 6.363122213698729 0 0 0
59 1 21.22117859390915 2.367550584818396 6.372060821726481 0 0 0
457 1 20.35551511591759 0.8518136438056736 8.610632908744735 0 0 0
458 1 23.041709185180167 2.317426429897562 8.575563487734012 0 0 0
418 1 23.01492185343757 -0.5443753103876139 8.613264122285328 0 0 0
19 1 21.24756764325731 -0.5889858328175674 6.39899176965257 0 0 0
63 1 26.372209182990144 2.4537499041694195 6.317222865657697 0 0 0
60 1 23.832993734004344 0.93099851015974 6.297022782292951 0 0 0
23 1 26.533685344489133 -0.5151863690937275 6.308191006320373 0 0 0
461 1 25.534519221307047 0.9194278173471861 8.703941911739173 0 0 0
462 1 28.117766902475577 2.3451326330992766 8.566960573697106 0 0 0
422 1 28.190256629139338 -0.41056418876420153 8.56414229484084 0 0 0
64 1 28.902536938146916 0.9205148205060611 6.196347761551822 0 0 0
465 1 30.68030078079912 0.8842381799098789 8.571183841703785 0 0 0
466 1 33.239979246761294 2.428732294238382 8.51916711415134 0 0 0
67 1 31.44654098113786 2.460525866538525 6.349633591782271 0 0 0
426 1 33.378245412761885 -0.49871935473263207 8.603275130410253 0 0 0
27 1 31.481181960057075 -0.5782509227002897 6.339609911611498 0 0 0
68 1 34.15199828843737 1.1073537385090564 6.24328236946463 0 0 0
69 1 36.85609185035847 -0.3961041434371344 6.129198875353949 0 0 0
469 1 35.77461261266373 0.9202334444177627 8.627820296677413 0 0 0
470 1 38.41188172361436 2.472088780744474 8.691392321629603 0 0 0
31 1 38.27517191877297 -0.48869089150360345 8.747593372056294 0 0 0
72 1 39.3587903763796 0.8621510395671939 6.460867337688732 0 0 0
473 1 40.92634851234307 0.812037347855191 8.867578276209949 0 0 0
76 1 43.373280963218264 -0.6377256160837699 8.754140092686832 0 0 0
74 1 41.81811356545482 -0.32675076364758393 6.428989419387299 0 0 0
474 1 43.60301987067878 2.285181679140716 8.663009342230124 0 0 0
3674 1 44.633541183138504 1.143699580142684 6.3697378233641935 0 0 1
77 1 47.25988899949769 -0.45746569142110083 6.161457109922786 0 0 0
477 1 46.31015186715632 1.0141416332935753 8.516716818583397 0 0 0
478 1 49.20329966254599 2.3472683844486744 8.605082426477223 0 0 0
39 1 49.08353525764451 -0.44080353037802755 8.490493392081207 0 0 0
80 1 49.81707639441517 1.0610470914702095 6.321506001456911 0 0 0
84 1 2.97240510897776 3.9544562034658117 6.302867675278559 0 0 0
481 1 -0.47295191784597884 3.823677502368083 8.671669633275107 0 0 0
83 1 0.492413993516987 5.333062395189147 6.205675456417167 0 0 0
482 1 2.216302409584815 5.4006907549497765 8.50154497023415 0 0 0
87 1 5.726972661663614 5.417140621964403 6.292251361002384 0 0 0
485 1 4.82963507637443 3.863386343453385 8.588101727663297 0 0 0
486 1 7.391485692591873 5.3285749033994065 8.6106007952322 0 0 0
88 1 8.31210596142542 4.018613602974757 6.381885431341877 0 0 0
489 1 9.932110203936467 3.787964652251407 8.59125355808316 0 0 0
490 1 12.641132420645976 5.476264612792901 8.503341465304333 0 0 0
91 1 10.886100446012083 5.441084140191247 6.411600334783089 0 0 0
92 1 13.41629679941633 3.900337901388445 6.3443174859480225 0 0 0
95 1 15.999274520737142 5.423411010067818 6.42092429105823 0 0 0
493 1 15.184305700581694 3.91438122529207 8.429319612562443 0 0 0
494 1 17.750574769463842 5.439044358683487 8.63213124848466 0 0 0
96 1 18.585972566551465 3.8413637833721506 6.374070741356134 0 0 0
497 1 20.31144858693003 3.8534467412137374 8.444749997397933 0 0 0
99 1 21.17328341250943 5.398667334717864 6.2881836627567615 0 0 0
498 1 22.905080088498213 5.4241328546406695 8.439969814492478 0 0 0
100 1 23.70915692684907 3.8995545883433476 6.286478298655195 0 0 0
501 1 25.54435608536713 3.963009473494484 8.640101551482232 0 0 0
103 1 26.303700134455095 5.473026084872645 6.336635231927001 0 0 0
104 1 28.9172851194034 3.8755970911285313 6.228048047481139 0 0 0
502 1 28.10232190293733 5.363687420316749 8.530757972279966 0 0 0
505 1 30.808931542060318 3.9270113003776395 8.457212320017518 0 0 0
107 1 31.643514422486557 5.448275247263684 6.284523467607118 0 0 0
506 1 33.42669756211707 5.368453890009331 8.650956017843091 0 0 0
108 1 34.177219450573176 4.072634048125218 6.349893601809886 0 0 0
509 1 35.744342356297395 3.919229570006552 8.585944723221814 0 0 0
111 1 36.82426130384813 5.614702405334842 6.393659737883175 0 0 0
71 1 36.77443722140646 2.5433193926606323 6.441673400542188 0 0 0
510 1 38.578574413953206 5.46980110795506 8.593161596929692 0 0 0
513 1 41.147734467838404 3.8515715411490685 8.666960931767699 0 0 0
112 1 39.35062570698365 4.07749274477815 6.501651643009293 0 0 0
514 1 43.88728317580956 5.393637833099479 8.671885044779287 0 0 0
115 1 42.03625303269499 5.52347046103109 6.493895418501477 0 0 0
75 1 41.895517912665866 2.590638673295227 6.563408728467863 0 0 0
116 1 44.76595852789727 4.0762404864685 6.3263914147728775 0 0 0
517 1 46.3702168062579 3.9015690299361516 8.618190616407816 0 0 0
119 1 47.51094462058644 5.512421041950745 6.3538768439706095 0 0 0
79 1 47.3034785282201 2.5185598611504805 6.351045577543029 0 0 0
518 1 49.084150549168314 5.3532916611911645 8.565376732405694 0 0 0
120 1 50.02618627007803 3.9610610571655283 6.235050818126626 0 0 0
522 1 2.183010770178911 8.359133030328099 8.46858232591089 0 0 0
123 1 0.5500229114197808 8.428582896178504 6.2087328950572065 0 0 0
521 1 -0.4095324037281358 6.909378487243954 8.58601482027704 0 0 0
124 1 3.175645452923741 6.855155107853998 6.243417987468869 0 0 0
127 1 5.680445382435424 8.447786209746344 6.229819292265657 0 0 0
525 1 4.73842530741665 6.953600525826337 8.634728214080454 0 0 0
128 1 8.288145066265228 7.022016685870813 6.371135876366095 0 0 0
526 1 7.322427394016936 8.490664766369937 8.480644922654596 0 0 0
529 1 9.951719087724426 6.962548494861101 8.58141962006976 0 0 0
131 1 10.884422847463087 8.534578257550104 6.352260458508158 0 0 0
530 1 12.64933239072797 8.379535930124815 8.61049915561555 0 0 0
132 1 13.547078846355344 7.1280906950734835 6.348639546076326 0 0 0
533 1 15.259325176911291 6.956819115155952 8.514362567536708 0 0 0
135 1 16.207483127545064 8.448522402012639 6.299936422127718 0 0 0
136 1 18.68497309485871 7.019763910212511 6.348382910661165 0 0 0
534 1 17.734739001062977 8.493879099473824 8.446790096732661 0 0 0
537 1 20.342744365075347 6.864023866529459 8.570306945944525 0 0 0
139 1 21.28616066076228 8.435652201625862 6.287988480689423 0 0 0
538 1 22.99387689412689 8.42615209899554 8.528767962362378 0 0 0
140 1 23.81705451307571 6.943021691258567 6.340817227811039 0 0 0
541 1 25.54183390266948 6.8434651977030025 8.521364986782782 0 0 0
143 1 26.43148529475569 8.482613338153572 6.227115694137166 0 0 0
144 1 29.054741201244997 6.925550893419597 6.285629885285527 0 0 0
542 1 28.255031042617354 8.234602181310866 8.495119139725418 0 0 0
545 1 30.799338414633635 6.9115577815867955 8.548355481783362 0 0 0
147 1 31.66072396372792 8.360764662358108 6.260309117569646 0 0 0
546 1 33.28288433070793 8.321181027756317 8.627738933863778 0 0 0
148 1 34.229965660083124 6.914635456051538 6.349941214699575 0 0 0
549 1 35.899689169978544 6.8856732806793595 8.636719267003013 0 0 0
151 1 36.84262969954548 8.454385234838265 6.352815693809801 0 0 0
152 1 39.468684221026976 6.986292838951002 6.466980096933243 0 0 0
550 1 38.5244415623733 8.41849894431564 8.599524542334658 0 0 0
553 1 41.25976992877834 6.996368073922163 8.631940796898112 0 0 0
155 1 42.09880560569442 8.517952758331532 6.381805510352072 0 0 0
554 1 43.88526670514263 8.63064376216465 8.615860076020919 0 0 0
156 1 44.70267638888562 7.009640475198426 6.299261090582797 0 0 0
557 1 46.54296251854541 6.879663935153255 8.560440516005048 0 0 0
159 1 47.2567831949424 8.466248173812849 6.3005590240064535 0 0 0
160 1 49.8510510179492 7.149205531809725 6.3004837708863075 0 0 0
558 1 49.05722776395267 8.377620342684038 8.497660446963728 0 0 0
161 1 0.4296077114143648 11.463647052796683 6.206798764592258 0 0 0
164 1 2.205839434627876 11.355370380989513 8.304783898085137 0 0 0
561 1 -0.3873498606276165 9.844575521107583 8.411346026492419 0 0 0
163 1 -0.36163485636679654 12.927981984701546 8.389621984626686 0 0 0
162 1 3.034221853503805 12.978927163219058 6.206987164376537 0 0 0
122 1 3.021209243175438 9.96926730371575 6.2763768105458615 0 0 0
565 1 4.803058529103218 9.7970330190329 8.471925465686056 0 0 0
165 1 5.620082674194691 11.470626364079875 6.237798361242249 0 0 0
167 1 4.841110901383708 12.804485780906962 8.367234000829917 0 0 0
168 1 8.310438801078028 10.019559434758362 6.272469464449617 0 0 0
566 1 7.423386232852475 11.39716926883017 8.531320094777838 0 0 0
166 1 8.265879022443869 12.90116100462826 6.327609961861338 0 0 0
569 1 10.013255476748727 9.996152317114943 8.513966070067989 0 0 0
171 1 10.795555534231985 11.48634751881861 6.366290467297754 0 0 0
570 1 12.472608897569033 11.362596812455278 8.56974557925908 0 0 0
172 1 13.569789624700284 9.960605164344845 6.2360351010507316 0 0 0
573 1 15.11284919551434 9.941320427789266 8.500705422509727 0 0 0
175 1 16.095645384676967 11.44465809548083 6.311737667416946 0 0 0
613 1 15.141048530625012 12.952075097133527 8.53167726295804 0 0 0
212 1 13.463023031914005 12.98176196536399 6.289801301369207 0 0 0
176 1 18.66814991391577 10.07204071437824 6.267458759119569 0 0 0
574 1 17.832413071869155 11.50783057772205 8.502353386928222 0 0 0
577 1 20.448066316983343 9.930989043185635 8.512463657323309 0 0 0
179 1 21.26518580147615 11.571225267597821 6.166197511394694 0 0 0
578 1 22.984144548032322 11.47877320339504 8.407924363880742 0 0 0
617 1 20.39250402353162 12.981957967734814 8.333946266855223 0 0 0
180 1 23.940979442543302 9.948711609445088 6.263052126398434 0 0 0
581 1 25.505705768680006 9.860197992068533 8.39224099461512 0 0 0
183 1 26.368738575051612 11.39980012188281 6.148422432741879 0 0 0
220 1 23.846597321839052 12.97292776019086 6.095341960529771 0 0 0
621 1 25.71122839401337 12.97321415189765 8.392632068441237 0 0 0
184 1 29.025150558227608 9.918380937799029 6.34081523606082 0 0 0
582 1 28.069550724062317 11.336781017152706 8.477536705307523 0 0 0
224 1 28.888642827282776 12.98928208235301 6.243637474652987 0 0 0
585 1 30.77460647532491 9.799187114166838 8.486903562602443 0 0 0
625 1 30.96356988400904 12.891436035546135 8.352433938668819 0 0 0
187 1 31.751149759309303 11.468736337364556 6.301696322881577 0 0 0
586 1 33.39738367714166 11.372270847988199 8.486283882279535 0 0 0
188 1 34.23306942113835 9.902750916728442 6.3605581750460525 0 0 0
589 1 36.06795859973215 9.860422465901783 8.569788157994774 0 0 0
191 1 36.918496609582405 11.440371488908829 6.205321128039866 0 0 0
629 1 35.95118260100766 12.909441972287716 8.429100356912818 0 0 0
228 1 34.333456824024395 12.971312639182479 6.122301348542232 0 0 0
192 1 39.361366154691666 9.970291052763741 6.334307556356884 0 0 0
590 1 38.62547932696238 11.411109555773534 8.477186837140632 0 0 0
233 1 39.415170097782166 12.946575033615616 6.205373502234351 0 0 0
633 1 41.12644496349671 12.929691739246536 8.387454502291185 0 0 0
593 1 41.22670028536949 10.003543367980468 8.58300130065628 0 0 0
195 1 42.15113157730585 11.404825838927742 6.259490184624962 0 0 0
594 1 43.84411491842904 11.299527020009492 8.47194275694963 0 0 0
197 1 44.598304552671536 12.82699592555766 6.20325333247086 0 0 0
196 1 44.76356559949835 9.883215661455251 6.266235577064106 0 0 0
597 1 46.36172096239311 9.957441568692325 8.477350506677706 0 0 0
199 1 47.23841589374457 11.475534596871611 6.222754278350166 0 0 0
637 1 46.4315658513128 12.92282866929365 8.487873561867419 0 0 0
200 1 49.831417960353264 10.035048176440517 6.308760479693873 0 0 0
598 1 48.919905438637585 11.413004852503832 8.467420224926775 0 0 0
3800 1 49.82148636449142 12.833517316134028 6.114324469795082 0 0 1
3763 1 0.30124213847754133 14.364129110003471 6.075217521746978 0 0 1
202 1 2.2132276716878088 14.504327213679787 8.297827481690838 0 0 0
3804 1 2.991254771948895 15.930243435835731 6.066329405108789 0 0 1
205 1 5.627260847355722 14.59950832963002 6.237841836474233 0 0 0
207 1 4.752751033866644 15.919404510240827 8.25652892960951 0 0 0
606 1 7.438542551792127 14.553022074791528 8.366024098178876 0 0 0
206 1 8.20526818554224 16.128218881269124 6.056806364834409 0 0 0
208 1 9.958655205201117 13.00770119342047 8.412376772468667 0 0 0
211 1 10.047913934388601 16.00685315949297 8.228764134508479 0 0 0
209 1 10.901958628758859 14.455031718160434 6.235849630814923 0 0 0
610 1 12.653810006462987 14.47963913042738 8.353741736724686 0 0 0
210 1 13.472598280153095 16.087211622306597 6.1411561472632155 0 0 0
213 1 16.07552710202368 14.484080462989557 6.11664492443124 0 0 0
653 1 15.122415234230798 15.947516054730485 8.243079811371706 0 0 0
216 1 18.67905804737784 13.002159899955068 6.145990230869483 0 0 0
614 1 17.728927140383924 14.527863642601986 8.308111187426443 0 0 0
214 1 18.701667340381558 16.02349079491561 6.106003556573222 0 0 0
256 1 20.44199382796177 15.889070224688894 8.315797427583146 0 0 0
219 1 21.192578577691577 14.548968569863405 5.997146567186569 0 0 0
618 1 22.96150164213521 14.433814655140573 8.229574050205336 0 0 0
218 1 23.908541147805394 15.998461689483086 6.007842343764578 0 0 0
223 1 26.444387845173736 14.46713394726994 6.046856024545501 0 0 0
661 1 25.652967060299776 15.980185343847428 8.202505258611943 0 0 0
622 1 28.15198966883588 14.414489627618398 8.31205403469152 0 0 0
222 1 29.0826103666113 15.966753646631911 6.02039256155573 0 0 0
227 1 30.82063677345275 15.808950398622006 8.293664189530235 0 0 0
225 1 31.782467117973045 14.462811307643232 6.1522184016414005 0 0 0
626 1 33.46293355562726 14.477412832914446 8.315278559684286 0 0 0
226 1 34.32506007641271 15.941986742189908 6.082182848070926 0 0 0
229 1 36.837769048710214 14.507879802590487 6.138984570615794 0 0 0
231 1 36.06103412829154 15.86970207897096 8.318560845256993 0 0 0
630 1 38.681729816162715 14.436421539055775 8.266531473091606 0 0 0
232 1 39.443728629767335 16.014382862848432 6.099418500018041 0 0 0
235 1 41.29908499861094 16.00407158521594 8.301540120741864 0 0 0
236 1 41.982788735707786 14.534473409702823 6.118410274155738 0 0 0
634 1 43.78485333340747 14.325874115109269 8.42616943243375 0 0 0
3836 1 44.66353098904051 15.890448607455575 6.245549833284882 0 0 1
3799 1 47.05990256777268 14.300292774600237 6.200625621518356 0 0 1
237 1 46.389061311990346 15.84255173283072 8.48682539164128 0 0 0
201 1 51.457532109869376 15.821388762343588 8.306082657258363 -1 0 0
198 1 48.996178978672276 14.262681751776853 8.341697319683913 0 0 0
3840 1 49.85449935971111 15.903031508112722 5.98887418696642 0 0 1
244 1 2.0502360115689204 17.40426529381262 8.19613746244819 0 0 0
3803 1 0.17805777924831323 17.478902588253835 6.092360620911978 0 0 1
3844 1 2.9608502908352134 18.977798169818293 6.029554350191939 0 0 1
3807 1 5.63045968437594 17.51024744924998 6.019854327679463 0 0 1
245 1 4.882402907155027 18.971817892602687 8.227717692094297 0 0 0
248 1 7.295161924782775 17.52415042188174 8.211432655225295 0 0 0
3848 1 8.357538361518719 18.933567145690045 5.97489705559991 0 0 1
251 1 10.014602626484875 19.026932098030482 8.173968054030397 0 0 0
249 1 10.813705745329589 17.54175852797862 5.9913486552445 0 0 0
252 1 12.465856777178443 17.51574061921941 8.18116384634177 0 0 0
253 1 13.540482583269515 18.999652898533338 6.010404782216602 0 0 0
215 1 16.05202290282539 17.503718499806 5.987629898289305 0 0 0
255 1 15.218574708306711 18.868876399232217 8.202113163394904 0 0 0
654 1 17.81703640628849 17.3884940674321 8.240815318547996 0 0 0
3856 1 18.63303474245617 19.02308533836369 5.848334304428164 0 0 1
697 1 20.471440474233038 18.878527891191922 8.261637055162545 0 0 0
3819 1 21.251115082305002 17.420130944665267 6.103195743994753 0 0 1
260 1 23.06212837880431 17.387767094981292 8.238207837228618 0 0 0
3860 1 23.922902312741503 19.027885894750334 5.9728391325475 0 0 1
258 1 25.718383107295526 18.91056932496037 8.275258993494765 0 0 0
261 1 26.57988735012031 17.604667618333202 5.952167834696068 0 0 0
3864 1 29.19246190888881 19.050466769847002 6.101418894404638 0 0 1
264 1 28.241951863505392 17.40145246107271 8.215941032671855 0 0 0
265 1 31.071170588980994 18.93697534779669 8.378633754554933 0 0 0
3827 1 31.728236580906216 17.486867924461325 6.105056410672539 0 0 1
268 1 33.714131835301444 17.529002996163186 8.256358402732182 0 0 0
3868 1 34.23341187809781 19.050263342987567 5.925008131513245 0 0 1
269 1 36.003168858563626 19.045038426480698 8.17524446836957 0 0 0
3831 1 36.8749024784276 17.505751427936932 6.059975000287049 0 0 1
3872 1 39.48828856913744 18.96209250556588 6.012636009294427 0 0 1
230 1 38.65980367216021 17.39591779249443 8.28933146140254 0 0 0
273 1 41.25834202466655 18.929360947943724 8.251079226354904 0 0 0
3835 1 42.02819597728163 17.552699880711195 6.10923854796122 0 0 1
234 1 43.834539152241646 17.420680420312497 8.325678576873623 0 0 0
3876 1 44.63033038501793 18.95195397903744 6.089977426675443 0 0 1
277 1 46.30973174131671 18.861383209967215 8.22783391313935 0 0 0
3839 1 47.31161207783005 17.28076864789767 6.141759218116126 0 0 1
241 1 51.443173518491506 18.915675884763644 8.334825646264708 -1 0 0
238 1 48.83415350216987 17.36528393010995 8.337276872309905 0 0 0
3880 1 49.78761520589008 18.765907219604916 6.120810864744665 0 0 1
284 1 2.035288129243409 23.48671452205249 8.279030399766066 0 0 0
3843 1 0.40405698924789646 20.475212120652536 5.931113367750893 0 0 1
242 1 2.141197170189197 20.543167354749233 8.144686657515141 0 0 0
3883 1 0.2099583541429476 23.457724477551867 5.988851097819002 0 0 1
3884 1 2.994788891172861 22.201919206583277 6.032958925715676 0 0 1
247 1 4.664860650276451 22.08334103452739 8.166155486229574 0 0 0
3847 1 5.58850986736393 20.61013962112119 5.933560359090666 0 0 1
246 1 7.27150514527372 20.545371956022056 8.197478763953027 0 0 0
3888 1 8.214401145658499 22.099868757219753 6.137762772552392 0 0 1
288 1 7.316223982318434 23.45744700737386 8.33589885747116 0 0 0
688 1 10.069283098401128 22.067234426232567 8.25636686700561 0 0 0
3851 1 10.910386418852712 20.584655256091523 6.155620391844161 0 0 1
292 1 12.644949088092163 20.467162411715076 8.26257934727512 0 0 0
289 1 12.717224356372794 23.477243481222807 8.346499868642047 0 0 0
250 1 13.53322066965684 21.909422103011813 6.090328933229064 0 0 0
1050 1 15.302677436658096 22.094945552437384 8.204707159390356 0 0 0
3855 1 16.08243983915004 20.49926586855659 6.024872194742416 0 0 1
293 1 16.21941668099293 23.487732122644644 5.9699561360164 0 0 0
254 1 17.810980547404384 20.405211420417665 8.22245590730969 0 0 0
297 1 18.716736989548767 21.880765862332137 5.896904355150793 0 0 0
1093 1 17.997654346801824 23.445989862695974 8.176235836114786 0 0 0
1097 1 20.503175595759707 21.85913251898045 8.064679308285932 0 0 0
257 1 21.346136394688532 20.402954625869846 5.983280777723125 0 0 0
259 1 23.019516691484178 20.337178272352283 8.138314555530341 0 0 0
3859 1 21.438755878250646 23.48288714491205 5.881598690764791 0 0 1
300 1 22.989398767796057 23.369291323074062 8.111616154040544 0 0 0
3900 1 24.036824377972703 21.856486524183335 5.9744419927396315 0 0 1
301 1 25.718528739388564 21.963993744235083 8.097612997194362 0 0 0
3863 1 26.52793361346501 20.39348765597094 5.956626583206378 0 0 1
302 1 28.13217558818935 23.344683750991837 8.237122880198234 0 0 0
262 1 28.42957314883598 20.353613084571208 8.291850456288232 0 0 0
3904 1 29.133011191707645 21.94621185271648 5.956249620267878 0 0 1
305 1 30.994670913404754 21.986009562087986 8.215025846224457 0 0 0
266 1 33.61971964120778 20.4797862066058 8.182782808199471 0 0 0
3867 1 31.746874806975594 20.473100410405955 6.100088280804349 0 0 1
306 1 33.596654891456495 23.398431022313755 8.21952709299583 0 0 0
3908 1 34.31217617180022 22.05939693323343 6.046368370205966 0 0 1
3871 1 36.95403040573588 20.59205309858674 6.001195712198149 0 0 1
309 1 36.18213810111392 22.0961022132108 8.190049512023869 0 0 0
310 1 38.65597442822509 23.416019338036236 8.187529538622648 0 0 0
270 1 38.7248238702698 20.50694122733738 8.15691808159371 0 0 0
3912 1 39.47557686537016 22.14342575166277 6.034510474533732 0 0 1
313 1 41.36988566047887 22.065062657865834 8.152266277345717 0 0 0
3875 1 42.050628553466495 20.480771584490046 5.928548889523203 0 0 1
274 1 43.85147476497434 20.496994285676774 8.200975776430585 0 0 0
3916 1 44.62073207602796 22.03558788157341 5.899235525707598 0 0 1
3919 1 47.243570626947985 23.49643376580583 5.880824582434831 0 0 1
3879 1 47.17506690198263 20.44583335494367 6.025004760644835 0 0 1
317 1 46.445198948815445 21.95137858345332 8.172275135173708 0 0 0
281 1 51.54637058960695 21.91899254422924 8.306958440783214 -1 0 0
3920 1 49.94167434554845 21.86770968777698 6.085147980046717 0 0 1
278 1 48.99423008138798 20.3719660176592 8.244821427123412 0 0 0
319 1 49.00274209856447 23.397535831768277 8.163407256258058 0 0 0
3923 1 0.33133778940285585 26.508078030382244 6.105507619435327 0 0 1
282 1 2.089784831727331 26.55409257269212 8.26659102084064 0 0 0
3924 1 2.890109970610011 25.069431872284106 6.025733407134907 0 0 1
3887 1 5.602160525138122 23.553151900313996 5.958189533643391 0 0 1
325 1 5.8140737613256945 26.708966271757756 6.015680850030139 0 0 0
285 1 4.662645720618298 25.07889230989271 8.222450714787293 0 0 0
1085 1 7.282789196496283 26.43158269515878 8.342227123721804 0 0 0
3928 1 8.280852040378903 24.9055819757326 6.1812317470229425 0 0 1
291 1 10.918678220691783 26.632538136709627 6.294242751085286 0 0 0
3891 1 10.854138571587713 23.600259403862413 6.079004246673943 0 0 1
691 1 12.758163268446356 26.350350009783888 8.465868733243736 0 0 0
286 1 10.009483836484643 24.96850415173606 8.361651895961698 0 0 0
3895 1 16.08760294054725 26.402693957690833 5.940426631264066 0 0 1
290 1 13.465755526252037 24.889858077287435 6.08371325257782 0 0 0
693 1 15.317426776284915 24.8667776273797 8.187718497567163 0 0 0
3896 1 18.974876196678473 24.895872334020133 5.880409058244227 0 0 1
694 1 17.813499143915738 26.167401190551285 7.944326875727062 0 0 0
296 1 20.5066536558771 24.951100702693825 8.203587008964982 0 0 0
700 1 23.03809046750062 26.28585537168383 8.385664632603506 0 0 0
3899 1 21.51667324201598 26.367323762856767 6.041101436930362 0 0 1
3903 1 26.49110625903555 23.54504972612966 5.835608994724611 0 0 1
298 1 24.03360631923838 24.90245694568077 5.883067916963814 0 0 0
303 1 25.71134834771597 24.977897423669933 8.151375532251993 0 0 0
341 1 26.582352489472054 26.369215939122743 5.970413575404095 0 0 0
3944 1 29.30798025352658 24.841505907431177 5.905965603263975 0 0 1
344 1 28.297751428165522 26.2895319278656 8.326927098573348 0 0 0
345 1 30.976581780014484 24.849585512146877 8.129274602991044 0 0 0
3947 1 31.803092868182173 26.52233134506542 6.082880576438329 0 0 1
346 1 33.525059943542615 26.541259830805934 8.290832955088158 0 0 0
3907 1 31.822000284057818 23.528314862696906 5.869522821793046 0 0 1
3948 1 34.318578657907096 25.030813410088786 5.944661384720207 0 0 1
3911 1 36.97171473088454 23.53345198739384 5.892382851213708 0 0 1
349 1 36.12911640746795 25.111784228686176 8.16018936494709 0 0 0
3951 1 36.964083581101306 26.531766620117875 5.9924512750410805 0 0 1
3952 1 39.58975906169837 24.9604364389082 5.967255956345366 0 0 1
350 1 38.7240656284511 26.627210362813194 8.325779060394225 0 0 0
315 1 41.260630661086026 25.153381057855324 8.260147912675533 0 0 0
3915 1 42.19398266533696 23.621430200175823 5.961234354366885 0 0 1
3955 1 42.16039873171411 26.619688679650913 5.939581461766747 0 0 1
314 1 43.79390303754738 23.55677000449818 8.097043381137617 0 0 0
354 1 43.89478736915498 26.513827686050693 8.201477650486844 0 0 0
3956 1 44.806954541225025 25.071071743507503 5.945892270600627 0 0 1
714 1 46.38270337660086 24.987373516646308 8.162825015406565 0 0 0
3959 1 47.354995078930415 26.631658599456177 6.014470308370732 0 0 1
318 1 51.48702911712937 24.988070082302432 8.230946623066405 0 0 0
3960 1 49.85303895476234 24.98428296923558 5.952758550815255 0 0 1
357 1 48.97296075044015 26.480915630537783 8.250855318149457 0 0 0
3963 1 0.3800529974974606 29.45434258394461 6.1083434043536124 0 0 1
361 1 2.318414829623716 29.469984723059667 8.265298587776753 0 0 0
3964 1 2.9802984145016196 27.83883052588758 6.05807104441016 0 0 1
321 1 -0.46313111599213025 27.98971057461717 8.242611236560936 0 0 0
322 1 4.690580391437393 27.94546741223632 8.307738150978317 0 0 0
287 1 8.569388493524118 27.888494632537586 6.315516463871166 0 0 0
725 1 7.397302972319013 29.217837877629727 8.347344546078903 0 0 0
686 1 9.780070608682335 27.535114121037957 9.213569554344607 0 0 0
729 1 9.906792083069247 30.32634066203922 8.535390773189928 0 0 0
332 1 11.277470438386784 29.634694548842518 6.152038416349279 0 0 0
732 1 12.579688570072166 29.127654709585734 8.50460761000159 0 0 0
295 1 13.552333760966961 27.86208962620274 6.054467582888342 0 0 0
294 1 16.073366257851383 29.305103361603543 6.077281987317749 0 0 0
695 1 15.276215008873272 27.883515514284525 8.235343366151081 0 0 0
3936 1 18.885779360369618 27.837064851861093 6.034159960443635 0 0 1
736 1 17.765106321340298 29.158425444096366 8.16361330209745 0 0 0
337 1 20.525743486376147 27.679666786079075 8.25543086102815 0 0 0
3939 1 21.286881570773573 29.33128889138206 6.110377561097502 0 0 1
299 1 22.916987816052384 29.17498823014118 8.42601404257404 0 0 0
3940 1 23.948500110270196 27.81076610661399 6.031137611303237 0 0 1
3943 1 26.563807065525666 29.207125385092844 6.082065996079687 0 0 1
698 1 25.64829837474483 27.697902249892742 8.388992801646493 0 0 0
342 1 29.22417422037905 27.827742243017425 6.082020996729173 0 0 0
742 1 28.190747809964634 29.147821897749637 8.336949592689592 0 0 0
745 1 30.859912519419794 27.926613385795633 8.491312844828395 0 0 0
347 1 31.737968386450657 29.317572600274808 6.090118270033235 0 0 0
746 1 33.348971328950554 29.408893676936145 8.453772021682662 0 0 0
3988 1 34.31818130697512 27.957586456607885 6.089927658444211 0 0 1
389 1 36.00097801853178 27.98409955080769 8.344813478829899 0 0 0
3991 1 36.924342407470505 29.523512134040217 6.130514892355125 0 0 1
390 1 38.63411379303078 29.692742100982294 8.333971700296578 0 0 0
3992 1 39.42336544450477 27.951707985291847 6.120235058123668 0 0 1
353 1 41.28519391110612 27.96203070855386 8.374864960240213 0 0 0
3995 1 42.05512079037382 29.56179214335487 6.135721469025242 0 0 1
394 1 43.92550550317607 29.48005522410169 8.302544015832021 0 0 0
3996 1 44.764450561852556 28.119021356073716 6.050796272078682 0 0 1
356 1 46.35130878619832 27.910498086339672 8.212154958529698 0 0 0
397 1 47.24357033056795 29.359329162719895 6.047413568248516 0 0 0
4000 1 49.87064092028477 27.94530461501151 5.964563517422514 0 0 1
358 1 48.85118610506514 29.461707015651825 8.41497124254045 0 0 0
398 1 -0.3704199886879443 30.900034095712527 8.374313573837124 1 0 0
363 1 0.5868670832117262 32.25433100714667 6.152930219807527 0 0 0
762 1 2.25695093510903 32.19731619310782 8.372687365960077 0 0 0
364 1 3.233554964493352 30.708317282105867 5.93365877689852 0 0 0
362 1 3.2519801969490323 33.63485071745196 6.124791954240455 0 0 0
722 1 4.877711136884828 30.821246014888438 8.47732722018431 0 0 0
327 1 5.822191191189698 32.006595145206 6.306206838904813 0 0 0
765 1 4.823206310830485 33.53513038147888 8.49888021157929 0 0 0
328 1 8.459116525258953 30.610002620679154 6.206011644979048 0 0 0
726 1 7.534154969285341 32.038402389315976 8.602160625773605 0 0 0
368 1 8.463342997845515 33.664848368672544 6.203539231197448 0 0 0
769 1 10.042144432045431 33.58622438246207 8.554806041196935 0 0 0
331 1 10.97924398275455 32.25518956957081 6.269397439025359 0 0 0
730 1 12.514682392505312 31.949090505946046 8.555595819492211 0 0 0
372 1 13.554296624909487 33.35908302008791 6.472499710846614 0 0 0
335 1 16.12074713176665 32.16020645392643 6.219059155789412 0 0 0
773 1 15.055198696895117 33.420358611842275 8.774491920972423 0 0 0
733 1 14.998721768699033 30.824573218520342 8.213310624010214 0 0 0
336 1 18.65333798175114 30.77640771337562 6.122460891673693 0 0 0
376 1 18.673656566856533 33.540520960861976 6.38479911718708 0 0 0
734 1 17.744705318345563 31.937986797105026 8.663290274151706 0 0 0
737 1 20.28330373099318 30.562739337328495 8.625337550325995 0 0 0
777 1 20.472246716345264 33.44289796853627 8.713566682706034 0 0 0
738 1 22.8895147025948 31.975485758046247 8.518887344685258 0 0 0
339 1 21.232690930713773 32.24358860532497 6.1892533519059425 0 0 0
380 1 23.729722896642148 33.65225616972202 6.265951812536319 0 0 0
338 1 23.922998492832196 30.730300992693344 6.202724421042978 0 0 0
381 1 26.489394140224494 32.14988822420441 6.2926147140427595 0 0 0
340 1 25.579461677791496 30.613031660070483 8.357820534551829 0 0 0
781 1 25.5693623057428 33.41149610101749 8.508542343848784 0 0 0
382 1 29.138993435432063 33.79074191709842 6.267144475250207 0 0 0
343 1 28.229461566998403 32.027106152718986 8.519532199723663 0 0 0
3984 1 29.286379563800907 30.692508334295738 6.183324946682184 0 0 1
384 1 30.780502097164504 33.55971296723925 8.447796570248498 0 0 0
785 1 30.839417759753463 30.72324799925621 8.615648476621269 0 0 0
385 1 31.662638906396484 32.168554039059025 6.020558179430047 0 0 0
786 1 33.26960578118141 32.31891858657872 8.558654437343904 0 0 0
386 1 34.224680585035415 33.86872674648417 6.257752014412814 0 0 0
429 1 35.807369565160315 33.86144492139452 8.56680746723575 0 -1 0
388 1 34.26872827628988 31.005597756462585 6.2427609081701325 0 0 0
789 1 35.99448437337837 30.898424909057667 8.470075128321675 0 0 0
391 1 36.841827028829755 32.336380813371804 6.038591499804686 0 0 0
32 1 39.400047048143165 33.79936640376221 6.021246640332269 0 -1 0
3632 1 39.31383235215527 31.043523793255694 6.121581640743439 0 -1 1
790 1 38.71772923564792 32.411368622185314 8.699993473150306 0 0 0
393 1 41.269661018382635 31.160826371728163 8.378339272707326 0 0 0
35 1 43.74395986728295 32.746730649850754 8.531100434354155 0 -1 0
395 1 42.03380179785054 32.49589611897863 6.172785886558583 0 0 0
3235 1 44.731712876066496 31.01650635525216 5.959822241088055 0 -1 1
399 1 46.38010969654589 30.995392585834402 8.320280957653758 0 0 0
3634 1 44.711553389250696 33.898923733861324 6.181395608068333 0 -1 1
36 1 46.64339899321533 33.77523491312294 8.50575920986054 0 -1 0
3636 1 47.27199057843261 32.308711310298285 6.1024401045743835 0 -1 1
40 1 49.86342619067692 33.664438378964874 6.098641600862781 0 -1 0
3640 1 49.85852926123242 30.844848288133385 5.939182838668871 0 -1 1
798 1 51.49324276804727 33.614663718621834 8.493308030632846 0 0 0
37 1 49.13009618967233 32.3795397274771 8.407040079562607 0 -1 0
763 1 0.47905928172926615 -3.480258799294427 10.62157197081532 0 1 0
404 1 3.0822893104024 -2.0261396432161383 10.638670263848041 0 0 0
767 1 5.681200914900094 -3.4488482107793788 10.698339821474795 0 1 0
408 1 8.354419124952127 -2.1796824585582684 10.851119516428126 0 0 0
771 1 10.954340419818863 -3.6705529426086545 10.894958562461921 0 1 0
412 1 13.381971522364577 -2.164470031271812 10.983054636061055 0 0 0
775 1 16.024316439040827 -3.592425812690726 10.877244932669589 0 1 0
416 1 18.5795003387664 -2.1553477504859493 10.973558455731714 0 0 0
779 1 21.254222351178015 -3.7490104327453846 11.01483156419037 0 1 0
420 1 23.737267995198884 -2.1269021387310736 10.916640262890299 0 0 0
783 1 26.35041054100846 -3.6631420913439454 10.860382636808026 0 1 0
424 1 29.047122730290393 -2.1209130135272485 10.886802666512233 0 0 0
787 1 31.493131090157355 -3.7106385779971305 10.907223688094863 0 1 0
428 1 34.27252980891281 -2.002130883326323 10.836206402555817 0 0 0
431 1 37.38441922188969 -2.0055817039730326 10.833042487864413 0 0 0
435 1 40.16741719889323 -1.5379553380753386 10.268369136967548 0 0 0
432 1 39.5422060591479 -4.491998134404874 10.881444155556535 0 0 0
1194 1 42.433134611138115 -3.036072584990091 10.445646885169133 0 1 0
799 1 47.31289288622969 -3.245940464036738 10.803355529490922 0 1 0
837 1 44.832145209956536 -1.8568891186891334 10.952454829294805 0 0 0
440 1 49.98659701891391 -2.1771174122920876 10.668945681260146 0 0 0
443 1 0.5470811040571766 2.3131612255158815 10.835762765204086 0 0 0
403 1 0.5301496859056556 -0.6549396320929333 10.89988156709584 0 0 0
444 1 3.178875419436724 0.8647387668143596 10.680917068105305 0 0 0
407 1 5.713359335411303 -0.6167577184400068 10.860798933989503 0 0 0
447 1 5.718273790359542 2.368459231010565 10.734333598952489 0 0 0
448 1 8.352529325577601 0.8651644028469132 10.790392914319062 0 0 0
451 1 10.842329446122124 2.4188587284090675 10.784598146772819 0 0 0
411 1 10.873763954782182 -0.5953255063065601 10.824465538498895 0 0 0
452 1 13.404540079174412 0.9009468612386504 10.780239778269227 0 0 0
455 1 16.074108422741308 2.401938337813468 10.739458726317835 0 0 0
415 1 15.978283790620786 -0.6713805598978682 10.813406086363209 0 0 0
456 1 18.737479933668528 0.7929366512473397 10.868051234208934 0 0 0
419 1 21.311514416174372 -0.6666938721282762 10.867301971835913 0 0 0
459 1 21.232228344729318 2.256271818649064 10.871611687336063 0 0 0
460 1 23.827255347183517 0.8228894388338155 10.856787429746133 0 0 0
463 1 26.39996838874103 2.3754845765115267 10.80205360954986 0 0 0
423 1 26.36781159581687 -0.5988634032147591 10.829199727625916 0 0 0
464 1 29.039446506448083 0.8081925050040066 10.917056470838435 0 0 0
467 1 31.538032467291163 2.392340164395045 10.807748233288967 0 0 0
427 1 31.608102713519475 -0.651554296282232 10.989132949552031 0 0 0
468 1 34.04354282906564 0.8836175074229198 10.885895672012607 0 0 0
471 1 36.67050512547263 2.460801068084871 10.693412337065741 0 0 0
869 1 35.921015497563374 0.5510759328147561 12.750707702263423 0 0 0
472 1 38.93678257629192 0.8985747627186864 10.893631379425123 0 0 0
475 1 41.93430620277667 2.348611769442889 10.830619013069741 0 0 0
476 1 44.69333742923271 0.8257471865648167 10.869575068402924 0 0 0
439 1 47.36201384368478 -0.4681410941822097 10.666707867696902 0 0 0
479 1 47.40154817632897 2.26848743176747 10.920830129106765 0 0 0
480 1 50.04717122790868 0.811730379209556 10.795770363048247 0 0 0
483 1 0.4734499499907333 5.308875869385016 10.885387033967653 0 0 0
484 1 2.951804562843858 3.8953571459679175 10.684038592303482 0 0 0
487 1 5.558986076105014 5.300617302816283 10.707163149849606 0 0 0
488 1 8.47145978824102 3.803842740971996 10.808846813091781 0 0 0
491 1 10.928369823331495 5.340888250134952 10.70204877555526 0 0 0
495 1 16.019169723467442 5.388958367156992 10.743953918039853 0 0 0
492 1 13.480843701033594 3.8467556159899257 10.850653781313927 0 0 0
496 1 18.673065225383798 3.950319927416084 10.745381420971691 0 0 0
499 1 21.223493116059274 5.348805183005226 10.676080950112887 0 0 0
500 1 23.740461539424352 3.835631739011152 10.737414485225719 0 0 0
503 1 26.561735143983636 5.343516347950461 10.825857131086597 0 0 0
504 1 28.95877471357847 3.9131856893201835 10.717898684181362 0 0 0
507 1 31.70766840814318 5.229517213445197 10.77538695522797 0 0 0
508 1 34.15583034778139 3.760065960105056 10.95406743586221 0 0 0
511 1 36.86761226131732 5.317000132851934 10.942442349723338 0 0 0
512 1 39.37875004338454 3.8281392904933913 10.888085776642168 0 0 0
515 1 42.069953858355404 5.367724557720313 10.767514239870911 0 0 0
516 1 44.91889611606413 3.6321238791497947 10.883028932121249 0 0 0
519 1 47.363943698646295 5.352083719004558 10.750297349075773 0 0 0
520 1 49.98770702244512 3.6668355018233765 10.927421771247058 0 0 0
523 1 0.36651452314101585 8.326598838077087 10.73657989707737 0 0 0
524 1 2.8521522179047585 6.916289595135703 10.739654868207419 0 0 0
527 1 5.625580701605603 8.401973522469829 10.763266355753322 0 0 0
528 1 8.294586404484654 6.8729507117801685 10.782167449738857 0 0 0
531 1 10.864823278594265 8.302461280283431 10.712870058806164 0 0 0
532 1 13.541434198245849 6.790378800770583 10.672192881189229 0 0 0
535 1 16.18489042338858 8.358066077465692 10.796537374566089 0 0 0
536 1 18.713994815306883 6.81520010777127 10.906730184562543 0 0 0
539 1 21.261615647021298 8.338615396789798 10.70724291986805 0 0 0
540 1 23.978531303003454 7.079235973664993 10.831651446536071 0 0 0
543 1 26.426288589969673 8.358222217618726 10.608650453115008 0 0 0
544 1 28.99804808196174 6.8611836951131195 10.786035696095025 0 0 0
547 1 31.6875236840099 8.298130723825338 10.903403651913962 0 0 0
548 1 34.189532586040684 6.870578137488179 10.962432461928335 0 0 0
551 1 36.87373415704158 8.296988668055484 10.828130138946294 0 0 0
552 1 39.50354260067358 6.790888129420136 10.842867393373387 0 0 0
555 1 42.06781902332972 8.348005166273888 10.745034482650144 0 0 0
556 1 44.65829635924007 6.801028797774739 10.81681481199178 0 0 0
559 1 47.34108054719219 8.318947660614523 10.720622384460755 0 0 0
560 1 49.86491519173704 6.792451272643854 10.766480053954858 0 0 0
962 1 2.1351972442502336 11.252219823936755 12.807945415420125 0 0 0
563 1 0.3118553160082027 11.29856231265369 10.510039862948311 0 0 0
564 1 2.9684382957681983 9.900292719898967 10.640403610509853 0 0 0
965 1 4.818842142517398 9.954777488050873 12.755562325146869 0 0 0
1005 1 4.838738581131258 12.759739638722206 12.771785979661395 0 0 0
562 1 3.103811777710975 12.745943009942057 10.462573962168582 0 0 0
567 1 5.591339882765722 11.276278287192826 10.564886442549243 0 0 0
609 1 8.197427251871245 12.915883506418925 10.652338631782078 0 0 0
966 1 7.373771922943561 11.231746824198321 12.787053873322007 0 0 0
568 1 8.294278713281777 9.789560114354027 10.635729195988986 0 0 0
1009 1 9.980800223323737 12.893810279549104 12.751559326150826 0 0 0
571 1 10.811517654279756 11.376710394999895 10.68123475095563 0 0 0
612 1 13.3304542281601 12.843736864985559 10.677915158030208 0 0 0
1013 1 15.007575725883552 12.96201629270621 12.742490582215222 0 0 0
572 1 13.508817651364245 9.848884502284069 10.738254219788123 0 0 0
575 1 16.04528913961347 11.350098076803585 10.691714857270536 0 0 0
616 1 18.713287405534654 12.875596059664911 10.647026690851888 0 0 0
576 1 18.736203603064716 9.81661035487201 10.690802751323183 0 0 0
978 1 22.896361228285695 11.411139857190202 12.73505647116509 0 0 0
977 1 20.354429434845102 9.764762291946559 12.810192383173476 0 0 0
579 1 21.190130876278563 11.47427706764572 10.60774691325772 0 0 0
620 1 23.798961213937755 12.928955202121795 10.497844041043113 0 0 0
1021 1 25.675290404318332 12.92544342260286 12.718728530724777 0 0 0
580 1 23.875827206064002 9.962846963368541 10.682394835127354 0 0 0
583 1 26.495202140449127 11.31504751027874 10.64276096674791 0 0 0
584 1 29.08381734841664 9.712664568508401 10.734066457181902 0 0 0
624 1 28.935968328417097 12.811854743366869 10.570664940668962 0 0 0
628 1 34.20423383798713 12.771530576275858 10.68082534156592 0 0 0
587 1 31.63328943545528 11.313295415402287 10.684905455483387 0 0 0
1029 1 36.102661757038334 12.861397886124728 12.81746208079196 0 0 0
588 1 34.26190132504746 9.916828626008133 10.745058892426393 0 0 0
591 1 36.99792066066141 11.37895262583749 10.602920203990609 0 0 0
632 1 39.41580234863699 12.858887921260873 10.616908708418023 0 0 0
592 1 39.348671490561756 10.01889036066109 10.832496994726341 0 0 0
595 1 41.989245822611295 11.402602691174803 10.693385687446108 0 0 0
596 1 44.74205054736031 9.983008304649076 10.721925426032557 0 0 0
636 1 44.670399206587206 12.749591523715399 10.726559240119908 0 0 0
1037 1 46.360157293376574 12.690310817734943 12.763703118510014 0 0 0
599 1 47.271242165565695 11.209280911441665 10.672510961916704 0 0 0
1001 1 51.461093285954874 12.860182043715191 12.746529063658793 -1 0 0
998 1 48.94955413403555 11.20080192156462 12.80386786304902 0 0 0
640 1 49.91158785085041 12.83782492705895 10.509679798384974 0 0 0
600 1 49.86810982244833 9.822483150169303 10.639433752325623 0 0 0
603 1 -0.4666800549833835 15.811698195033383 12.681763334581593 0 0 0
604 1 2.1039895721392345 14.31300073509664 12.687973922788531 0 0 0
601 1 0.32935938730486425 14.446849260196156 10.427169966513581 0 0 0
204 1 2.9276039713453694 15.761496635678249 10.483969439239418 0 0 0
607 1 4.714103323903875 15.8709595753899 12.708840656400065 0 0 0
605 1 5.56038216605401 14.40046406682487 10.492349777976923 0 0 0
608 1 7.257979686869234 14.411580042312394 12.782509267478563 0 0 0
1048 1 9.921680229968803 16.07723617492876 12.677884166502274 0 0 0
648 1 8.109855226712272 16.098295635849237 10.50443748925139 0 0 0
1010 1 12.388907750338765 14.520025758150076 12.811273306374348 0 0 0
611 1 10.82082140020178 14.47420152693488 10.527363667271693 0 0 0
652 1 13.437332463868357 15.948568898005892 10.592178657860918 0 0 0
1053 1 15.06976015369545 15.92397836844933 12.787506434562452 0 0 0
615 1 15.98694460700451 14.507314915770166 10.539649736361831 0 0 0
1014 1 17.733930185321604 14.40141263713664 12.645650408866823 0 0 0
656 1 18.81832961087378 15.859512256802411 10.397582389224825 0 0 0
1057 1 20.22962742732639 15.936842996418406 12.661329184324352 0 0 0
1018 1 22.894216328344125 14.336638155730952 12.714347894123227 0 0 0
619 1 21.244780809639884 14.396626862972692 10.48270874911749 0 0 0
623 1 26.474953660835784 14.283393436680019 10.47339152137235 0 0 0
1061 1 25.61838537817053 15.847771330839446 12.589392113173025 0 0 0
660 1 23.871061614978533 15.878911171714226 10.486569611626814 0 0 0
664 1 29.062549276394595 15.82383987956971 10.491529387655175 0 0 0
1022 1 28.18291347085001 14.351716412652827 12.652724873579231 0 0 0
1065 1 30.73150370009246 15.825193264981614 12.680771528944359 0 0 0
627 1 31.66304790924482 14.393243650283509 10.52274532692225 0 0 0
1026 1 33.56188143075863 14.240036154455009 12.770061943774875 0 0 0
668 1 34.25070519264736 15.831410961552777 10.521440128394946 0 0 0
631 1 37.07700982245545 14.38351969162245 10.49520816694773 0 0 0
1069 1 36.008363726900726 15.845634031414939 12.677517676897418 0 0 0
1030 1 38.675764937731415 14.416514798142906 12.717737100155661 0 0 0
672 1 39.51889206126543 15.895601371468114 10.526033169900053 0 0 0
635 1 42.030728404036225 14.451389951952788 10.528904674629143 0 0 0
676 1 44.58502435880766 15.988518213168494 10.763815988293223 0 0 0
1073 1 41.336431476068114 15.928611616540582 12.799807590193812 0 0 0
1034 1 43.837395906234775 14.205876849812114 12.735757639461534 0 0 0
1077 1 46.33788509907821 15.79583367229209 12.83937139480799 0 0 0
639 1 47.18875800442085 14.371218290004911 10.6485996379264 0 0 0
240 1 49.68379878864599 15.808544786257542 10.567205906495916 0 0 0
1038 1 48.99906555108397 14.39596527380375 12.80145061858259 0 0 0
203 1 0.44730892085029506 17.43373176121555 10.508612377832852 0 0 0
602 1 2.290278224711273 17.400774931188018 12.579080519239467 0 0 0
1041 1 -0.46266920620411156 18.932947569232066 12.63477817923858 0 0 0
644 1 2.8812606422979226 19.00826098734445 10.405003480085893 0 0 0
645 1 5.5820143794170685 17.43926370054915 10.491259477321197 0 0 0
1045 1 4.633016878423957 18.79157385909469 12.687271707632087 0 0 0
1006 1 7.301201033164531 17.49621127035117 12.66080558669107 0 0 0
651 1 8.160238271572448 19.0840092352387 10.366228715078325 0 0 0
1051 1 9.999246628152815 18.965886486172618 12.616841984110437 0 0 0
1049 1 12.554160306038256 17.462962433067336 12.707684656712216 0 0 0
649 1 10.783906556143696 17.432828878238205 10.401224634405494 0 0 0
650 1 13.346979523050285 18.873917823742794 10.330933447971535 0 0 0
1052 1 15.066426522548982 18.969769484358885 12.583793738441695 0 0 0
655 1 15.969622084628874 17.35990463701515 10.438352017823355 0 0 0
1054 1 17.606533767085622 17.446498636693736 12.624035579922028 0 0 0
696 1 18.65776249247771 18.83879115266372 10.524038952827967 0 0 0
1457 1 20.331399617029977 18.847308322454147 12.548523309545425 0 0 0
1058 1 22.860251461867716 17.33790416835979 12.64133172662526 0 0 0
657 1 21.329311761621327 17.379203274680815 10.480579413094427 0 0 0
659 1 23.914428258065215 18.793312110397103 10.393666068501973 0 0 0
1101 1 25.748610814226684 18.818917154361657 12.489874767456898 0 0 0
658 1 26.491987038959895 17.358826542468087 10.395079498117173 0 0 0
663 1 28.1365971692386 17.34021484056952 12.654159341884707 0 0 0
662 1 29.221281222255506 18.819290108532204 10.425789943063624 0 0 0
1066 1 33.487044498070716 17.40486187350911 12.63625657104904 0 0 0
667 1 30.958070403722264 18.901241119873806 12.601809933121844 0 0 0
665 1 31.97039082044007 17.224461691262167 10.472331823588288 0 0 0
666 1 34.486291291437595 18.812700103048645 10.556434623401177 0 0 0
671 1 36.281688559405964 18.941670754885052 12.560032660787725 0 0 0
669 1 36.99739403506662 17.366077660631714 10.461110182685143 0 0 0
1070 1 38.59410691300917 17.517107992302684 12.687142368137264 0 0 0
272 1 39.505672696742465 19.016116287457955 10.415947900574078 0 0 0
675 1 41.16303142163315 19.103127082737874 12.731724246939033 0 0 0
1074 1 43.82469763382805 17.522822338380614 12.735355546718944 0 0 0
673 1 41.995608834310715 17.389143502108016 10.598600815727329 0 0 0
276 1 44.58106910887055 18.915755558993954 10.521317241398492 0 0 0
677 1 46.520635996886014 18.99365109283165 12.707645512126897 0 0 0
239 1 47.17336589332186 17.376715335328054 10.642003950488393 0 0 0
638 1 49.08605017749356 17.221661121162125 12.798857840741798 0 0 0
280 1 49.70907467016872 18.943431219359002 10.55490419852417 0 0 0
1042 1 2.1124008320799685 20.502585342516554 12.559630560316416 0 0 0
684 1 2.059976303637289 23.48088764187972 12.667562528344911 0 0 0
641 1 0.42855392504314893 20.54237153948649 10.434834226372544 0 0 0
642 1 2.8774737039654896 21.93757100465566 10.462048589067866 0 0 0
1047 1 4.720861074333478 21.847933088055882 12.54891958439813 0 0 0
646 1 5.468564417927042 20.460356579945387 10.40164159210228 0 0 0
1088 1 7.1676208623819155 23.34895318232324 12.578289047392301 0 0 0
1446 1 7.297681473675349 20.39373571991529 12.574213708712765 0 0 0
1046 1 8.257382287009944 21.87370400404641 10.410223599287441 0 0 0
1489 1 9.784735663375889 21.994274138051264 12.643504322618876 0 0 0
1490 1 12.403953787001113 23.415427626965258 12.718181275248467 0 0 0
1089 1 10.783504917509307 23.449343337514573 10.512526165063104 0 0 0
1450 1 12.509487689507278 20.49257938674525 12.642924934264435 0 0 0
689 1 10.814316290047165 20.45408443596038 10.447929424044847 0 0 0
1092 1 13.45529314278317 21.916822258537405 10.507604359653815 0 0 0
1095 1 16.255736492423406 23.339254966939844 10.386426606785896 0 0 0
1493 1 15.11000193934662 22.00453340606262 12.48395404672749 0 0 0
1055 1 16.020097383110414 20.40259427009882 10.35870771944565 0 0 0
1494 1 17.878860050566015 23.299828165677223 12.360841576008108 0 0 0
1454 1 17.695855508503954 20.488881350827594 12.470734758667419 0 0 0
1096 1 18.850861134850877 21.840805940357757 10.225763396246032 0 0 0
1497 1 20.317610509043927 21.838469423827558 12.482418972141637 0 0 0
1099 1 21.26297611540818 23.333467911472354 10.452857664113997 0 0 0
1498 1 23.022245776007026 23.326599635235365 12.590504278878155 0 0 0
1458 1 23.061392371567067 20.387285387485 12.5173897012989 0 0 0
1059 1 21.234742780747734 20.236558260167264 10.335936740582863 0 0 0
1100 1 23.87087699859001 21.77048283292735 10.410253297696055 0 0 0
1103 1 26.554482032769176 23.268169484432583 10.426902503987238 0 0 0
263 1 26.68877693190587 20.321422565606138 10.354644421828073 0 0 0
1501 1 25.727770222497895 21.746849608054738 12.559319090417869 0 0 0
701 1 28.394034386615573 20.36152571244242 12.57984709408058 0 0 0
1502 1 28.26627448483468 23.37645642769602 12.69640264635286 0 0 0
304 1 29.229200649029877 21.93257938217595 10.429325370826161 0 0 0
267 1 31.889167272213317 20.480850180889107 10.482031103859955 0 0 0
704 1 30.86605649107442 21.906212642643247 12.585247005399026 0 0 0
705 1 33.534225636836254 20.37115542088528 12.526109671363644 0 0 0
706 1 31.82959910369802 23.34136525592079 10.359347685755285 0 0 0
1462 1 33.447570807005505 23.497121107574383 12.597321291924978 0 0 0
271 1 37.00391123295259 20.44129908723131 10.345995231463315 0 0 0
308 1 34.457282677441256 21.89783997521123 10.369189883230138 0 0 0
708 1 36.19571651982865 21.8708461398681 12.557468214680238 0 0 0
312 1 39.61324131711433 22.035573150059243 10.328619431360782 0 0 0
1109 1 38.70267949578141 23.351094657522633 12.52184515909144 0 0 0
670 1 38.67944218952002 20.617396245596264 12.703690628061757 0 0 0
1113 1 41.28445390993673 22.070005569345778 12.690381878790095 0 0 0
674 1 43.89128253334326 20.472288942596077 12.681547816056845 0 0 0
275 1 41.97356021291087 20.459867418191834 10.473013753485693 0 0 0
716 1 43.80783401003936 23.493428772763703 12.521181323128992 0 0 0
316 1 44.806681206167084 22.000060472563597 10.414402109777193 0 0 0
279 1 47.25793422843388 20.4319483809707 10.470473592823515 0 0 0
717 1 46.54310598462841 21.994176981446895 12.675321250673138 0 0 0
320 1 47.26805494833441 23.402480666756222 10.348120149139731 0 0 0
243 1 49.80888839262484 21.837317153516224 10.515459255971342 -1 0 0
678 1 49.01140716244147 20.41200748219213 12.613100567287232 0 0 0
720 1 49.07537923002495 23.419905689347654 12.722928780067617 0 0 0
643 1 51.51919253788742 21.98388492900825 12.587881100775826 -1 0 0
283 1 0.3787072204000582 26.547922531953926 10.57978269430248 0 0 0
1121 1 2.1703652931968187 26.414293937001474 12.817712434131764 0 0 0
683 1 2.984698449759985 24.82173814387781 10.476171447715116 0 0 0
681 1 0.3400732395003778 23.509045986696588 10.3912489155826 0 0 0
1082 1 4.684767342602838 24.720707062057297 12.607824996957916 0 0 0
685 1 5.409320840607553 26.45894937676523 10.463351268175968 0 0 0
647 1 5.553697344047061 23.52526338224428 10.459468979487225 0 0 0
1086 1 8.222083077376924 25.120557698734096 10.600791113237932 0 0 0
687 1 7.009721415873874 26.60326062379181 12.5385494103911 0 0 0
1091 1 11.35142378593726 26.026923273642137 11.146785737018085 0 0 0
690 1 13.758221384057011 24.71843670992512 10.63727313657954 0 0 0
1533 1 16.324175744208983 25.704506040611122 12.087856737652261 0 0 0
1094 1 18.69525219384887 25.09981750154633 10.36557567598944 0 0 0
1537 1 20.405822397419527 24.939295699913128 12.59057344550278 0 0 0
699 1 21.316707106405634 26.35500719262003 10.64510166388844 0 0 0
1140 1 23.921414856028974 24.816094067689676 10.465004523289256 0 0 0
1541 1 25.682996728485797 24.74066288923699 12.57742501560411 0 0 0
702 1 26.669091162035702 26.28063124589377 10.562824791670401 0 0 0
307 1 29.146558964746387 24.76249628192433 10.401281693719843 0 0 0
1104 1 30.767349868869598 24.919363593027224 12.553682464270604 0 0 0
348 1 31.74699394567786 26.37929268203194 10.45307886210416 0 0 0
1105 1 33.422444219267206 26.229002484687065 12.553994662668025 0 0 0
709 1 36.985552936551684 23.565237436036533 10.414494016922246 0 0 0
749 1 34.44323046074365 25.052271323163943 10.323683481263839 0 0 0
711 1 36.16494819222585 24.841992700253662 12.580116447582562 0 0 0
311 1 36.965690249638584 26.452492565600643 10.5477561600517 0 0 0
710 1 39.5262403701216 24.975574171751767 10.479902849010681 0 0 0
752 1 38.776993759904286 26.425885106934167 12.73142994004618 0 0 0
713 1 42.19339255462141 23.553071244674182 10.364177516263524 0 0 0
756 1 43.868902172178906 26.59991981349767 12.563772932422626 0 0 0
355 1 42.04469430049302 26.543501761342675 10.435755857285024 0 0 0
712 1 41.21031120779371 24.940957306079905 12.623657174808077 0 0 0
757 1 47.252831914137715 26.521922711842894 10.388621054909363 0 0 0
753 1 44.64594278596712 25.030491607143027 10.477133792715094 0 0 0
719 1 46.445885704984875 24.911282849734082 12.616375676473956 0 0 0
760 1 51.47576525989322 24.85138060413598 12.694868299100161 0 0 0
759 1 49.05558727403093 26.513994415585525 12.65470211954012 0 0 0
718 1 49.91108913075695 24.899904438693742 10.434166003309405 0 0 0
323 1 0.4410865923263312 29.350628604725713 10.63856776680215 0 0 0
324 1 3.025775727059829 27.928209834536737 10.572550633726927 0 0 0
682 1 5.654453221340047 29.218177616622924 10.86843116104915 0 0 0
1087 1 9.402671927596693 27.49682371528615 12.196363193462597 0 0 0
728 1 8.386233723629346 30.457387592382517 10.770969241038147 0 0 0
1090 1 11.174437616451556 28.941100653800078 10.776666152174322 0 0 0
1133 1 13.587055730195209 30.2421211128269 11.002390581454309 0 0 0
692 1 13.915399596258672 27.505062038658515 10.758591620295244 0 0 0
1135 1 16.573810069543846 29.017382971457685 11.852762176100446 0 0 0
1134 1 16.931008956133688 27.34454437518028 10.057547250661703 0 0 0
1136 1 18.665003838343523 27.401135069671895 12.011682056251678 0 0 0
1137 1 18.53050177231865 30.113139287308798 10.629816666955968 0 0 0
1098 1 21.235191551527198 28.86014970672902 10.966911130436921 0 0 0
703 1 23.842438555359625 27.67666971647286 10.612657853115364 0 0 0
741 1 26.584596355159427 29.078215730570577 10.7232541560289 0 0 0
707 1 29.109341606798164 27.691912690096615 10.658580633885036 0 0 0
748 1 31.760812231460033 29.25008783381321 10.955805470703345 0 0 0
351 1 34.3620387167456 28.108593921051565 10.780752873451375 0 0 0
392 1 37.04091069528506 29.700040546032163 10.86172327695073 0 0 0
750 1 35.90134236542718 27.579842563771997 12.808832990421022 0 0 0
352 1 39.5645458708598 27.960773750123096 10.592081932877706 0 0 0
715 1 41.10257655521791 28.20999592681587 12.844762418466825 0 0 0
755 1 42.15556470352317 29.75765674765917 10.602082369404599 0 0 0
1154 1 43.82251654767809 29.327622703295447 12.686004183815424 0 0 0
754 1 44.804215545213154 28.080765413046365 10.506784134584818 0 0 0
359 1 47.233003054771245 29.48353181741036 10.581369370707298 0 0 0
1197 1 46.49542035351432 28.01094589327723 12.686354642496566 0 0 0
360 1 49.89974379577252 27.95334834822159 10.459537961576128 0 0 0
800 1 0.6478194333757659 32.141812462415594 10.763742192495222 1 0 0
761 1 3.302752181224389 30.607521905463983 10.865489201295981 0 0 0
727 1 5.640144952059947 32.05147017898095 10.764810575300244 0 0 0
764 1 3.2313366821651934 33.47777902523196 10.797857084610852 0 0 0
768 1 8.46690839226754 33.3747208677988 10.88609011362278 0 0 0
731 1 10.815318477300481 31.874488993454214 10.900852177323907 0 0 0
772 1 13.362354739476922 33.21269713830902 11.063868073273529 0 0 0
735 1 15.963589511540643 31.66213110172081 10.94878843549663 0 0 0
776 1 18.778048232623618 33.38344907052725 10.833728753922989 0 0 0
739 1 21.13123468364453 31.68446644956213 10.923858476982629 0 0 0
780 1 23.780268009140865 33.37206495199402 10.811976846807008 0 0 0
740 1 23.951132160003826 30.52778327049272 10.883667202115927 0 0 0
743 1 26.4131041373974 31.862930902829795 10.950375282744965 0 0 0
784 1 28.994750612261768 33.30004168160676 10.877775628586976 0 0 0
747 1 29.05771677815342 30.57771885131241 10.845015753744615 0 0 0
791 1 34.15715647947869 33.65960889288364 10.89202368069924 0 0 0
788 1 31.660957407766087 32.075957493341804 10.906650839517381 0 0 0
751 1 34.409907527888265 30.840962659267333 10.698350949524743 0 0 0
792 1 37.12036743588773 32.3917807857249 10.87213419339861 0 0 0
793 1 39.637836604609674 31.001288041053947 10.712205722227882 0 0 0
795 1 42.137662268834475 32.77408065804384 10.720810630400567 0 0 0
396 1 44.682103139823695 31.065352119573625 10.634963254072968 0 0 0
436 1 44.81267133109725 33.961815521807765 10.601510172683474 0 -1 0
1158 1 47.446798520987585 32.37416572130913 10.786999800456144 0 0 0
400 1 50.07800483291403 31.11886235933455 10.685757724950063 0 0 0
801 1 -0.3748349068604348 -2.332457551799844 13.06385137942679 0 0 0
1162 1 2.39667419296034 -3.548753367016455 13.000718010611337 0 1 0
1163 1 0.6499178056100994 -3.886978217717773 15.174462323101583 0 1 0
804 1 3.026938784825185 -2.0616149697715085 15.340628086059244 0 0 0
1167 1 5.810638514705869 -3.6183796193557614 15.302239722603854 0 1 0
805 1 4.7911959624831315 -2.11090615819004 13.06896499295561 0 0 0
808 1 8.424056786250167 -2.346148745763237 15.403729022747036 0 0 0
1166 1 7.395076456716404 -3.603893542400171 13.15188874779375 0 1 0
809 1 10.032668053325587 -2.189100845265255 13.217225740423274 0 0 0
1171 1 10.912577385221919 -3.733367827272632 15.519727465153492 0 1 0
1170 1 12.596823345413203 -3.702512049092678 13.25334226117086 0 1 0
812 1 13.401367076611967 -2.283711045034551 15.445314491193631 0 0 0
813 1 15.111622767683356 -2.189628501209073 13.179813686279871 0 0 0
1175 1 15.946041968860666 -3.9261777039909345 15.401867421012547 0 1 0
817 1 20.334787145943324 -2.3615109766545515 13.311420275173521 0 0 0
816 1 18.385697159736807 -2.446187196126342 15.48724739270352 0 0 0
1174 1 17.81720689607743 -3.859647272037527 13.097448950515915 0 1 0
1179 1 21.17711860549738 -3.9434004411970087 15.492418423749944 0 1 0
1178 1 22.8115016524945 -3.8890676822995593 13.2917810253206 0 1 0
820 1 23.81832498786776 -2.227335874708513 15.523883435882473 0 0 0
1183 1 26.262399875179124 -3.8692954363280827 15.572246134542802 0 1 0
821 1 25.559397243493855 -2.318010212362308 13.102987630467654 0 0 0
824 1 28.866618957673992 -2.432650789889453 15.489932177828994 0 0 0
1182 1 28.114178455724165 -3.8364887727084005 13.16747697273233 0 1 0
825 1 30.72405501912338 -2.24703968315604 13.257036923016226 0 0 0
1187 1 31.52118958310528 -3.9050361205668596 15.482679086591707 0 1 0
828 1 34.101827067355075 -2.3812815764738207 15.55171059983419 0 0 0
1186 1 33.22359811623191 -3.663451498769255 13.153100401803062 0 1 0
1191 1 36.682801299165476 -3.9629601754208994 15.410498563764778 0 1 0
829 1 35.76088970800849 -2.454526108469077 13.110928401060864 0 0 0
832 1 39.319878535992046 -2.3248546526997638 15.369496852054631 0 0 0
1190 1 38.11131226767439 -3.7747802571293345 12.983805551109722 0 1 0
833 1 40.996479466002725 -2.2756316444276634 12.883110720963534 0 0 0
1195 1 41.90732504956303 -3.600810095371666 15.164694508972632 0 1 0
1196 1 43.4368612534964 -3.6623037031726473 12.907705863306834 0 1 0
836 1 44.83324416045768 -2.158985459268996 15.026417853394797 0 0 0
1598 1 47.47654600625357 -4.18216812693022 15.290555833592533 0 1 0
839 1 47.451219192287695 -1.077999294435195 15.299318360279894 0 0 0
840 1 49.89025870018145 -2.457992601854518 15.38373754981657 0 0 0
1198 1 48.95761918357715 -3.6000338823714246 12.966284323548852 0 1 0
843 1 0.4653750515776035 2.1523010237207796 15.344333020541953 0 0 0
842 1 2.3946387655202823 2.296844455970618 13.043947702064807 0 0 0
802 1 2.277421285380297 -0.6076004581883185 13.087162989328428 0 0 0
841 1 -0.3647120296299553 0.7168081571006768 13.111652504009404 0 0 0
803 1 0.3760289250175477 -0.9031645365703205 15.270290000996424 0 0 0
844 1 3.041345903127333 0.7362801574312066 15.304529859558558 0 0 0
807 1 5.610499909298909 -0.7802183022461429 15.33449739022588 0 0 0
847 1 5.7063690729938035 2.1105174532767927 15.316685956818613 0 0 0
845 1 4.818329318521306 0.8375403283975658 13.085086478634485 0 0 0
806 1 7.480038829452171 -0.8295209942190795 13.081722278975546 0 0 0
848 1 8.214555791045937 0.6076692070983523 15.339022297666062 0 0 0
846 1 7.403481922668607 2.2934686418380403 13.007846664567586 0 0 0
849 1 9.947242114605233 0.8295939888002346 13.12148078673095 0 0 0
811 1 10.922021377089532 -0.8100261890699336 15.437396294290242 0 0 0
810 1 12.570097047944332 -0.6347254837060716 13.103877933936209 0 0 0
851 1 10.818719895939726 2.2383097716711617 15.301082302569741 0 0 0
850 1 12.615371839025421 2.2597405150123686 13.098570779608405 0 0 0
852 1 13.45416892854836 0.7143121324882049 15.433037812097382 0 0 0
815 1 16.088959888054596 -0.7930386873317516 15.32700668172391 0 0 0
855 1 16.103023865554217 2.226031194528362 15.392306220301286 0 0 0
853 1 15.372981136924857 0.7848210549477539 13.080421211820287 0 0 0
814 1 17.79650307358259 -0.7834465106094011 13.199260985759581 0 0 0
856 1 18.788756129337713 0.6777183645724403 15.385440402863534 0 0 0
854 1 17.73119097725312 2.2798342344326645 12.933533927444447 0 0 0
857 1 20.48210162377941 0.8196619836945516 13.059407751615163 0 0 0
819 1 21.27663988617327 -0.8272548028295916 15.432878494269714 0 0 0
859 1 21.2594145235178 2.2382413322481263 15.329220395274204 0 0 0
858 1 23.110248289497175 2.1894899302190582 13.078230564324333 0 0 0
818 1 22.882031675684505 -0.809332553165953 13.20036477853321 0 0 0
860 1 23.803851152656158 0.7416623948751502 15.443932720803105 0 0 0
861 1 25.515380720298747 0.8417891182869637 13.188040447589676 0 0 0
823 1 26.460714096863516 -0.9482715507489403 15.34041592619121 0 0 0
863 1 26.398852114430596 2.1739844889549342 15.506506835008908 0 0 0
864 1 28.85846281321524 0.6166610807291253 15.395189702345036 0 0 0
822 1 28.115088968624352 -0.6607255272498351 13.140718900310652 0 0 0
862 1 28.08599326435597 2.2205282084228264 13.044336364403904 0 0 0
865 1 30.726083405999155 0.6656450326276584 13.071741834026064 0 0 0
827 1 31.641165835408838 -0.8410679147688258 15.436039843121353 0 0 0
867 1 31.684119613698147 2.0319012285384526 15.309307503179886 0 0 0
826 1 33.48558112259738 -0.7410098557504545 13.230297644470554 0 0 0
866 1 33.227899180089 2.1876282894696226 13.08344385879785 0 0 0
868 1 34.40367127696979 0.7199642739404437 15.320711118765363 0 0 0
831 1 36.747034148730805 -0.8031673364333982 15.208936698056434 0 0 0
871 1 36.8768199851672 2.147135258583898 15.278908979073417 0 0 0
830 1 38.49294119211737 -0.840845890024458 12.978121988949006 0 0 0
872 1 39.37476148288532 0.5365440311656924 15.370224102400885 0 0 0
870 1 38.528888659228045 2.1148630146162777 13.069951680882692 0 0 0
873 1 40.95309673671079 0.5528513697035953 12.86368548483687 0 0 0
835 1 41.90378988750109 -0.8530946710252563 15.245150112287234 0 0 0
875 1 42.0350784270458 2.182899280711365 15.164636930093844 0 0 0
874 1 43.73575759021632 2.1927532024915948 12.988581694371906 0 0 0
834 1 43.520708009190244 -0.7906098658626699 12.994013277829263 0 0 0
876 1 44.66228652173808 0.5741122551719249 15.305510454085413 0 0 0
879 1 47.189429437804975 1.899901169906074 15.199251302420967 0 0 0
877 1 46.35475304265428 0.4161203192311076 12.981831226065632 0 0 0
880 1 49.858754770693196 0.5140487666493128 15.320171132073686 0 0 0
878 1 49.01370843944382 2.117985968100357 13.188273926359587 0 0 0
838 1 49.116822710272515 -0.9910114501332639 12.95716175497097 0 0 0
881 1 -0.31341928404453545 3.678594961449871 13.184760821717292 0 0 0
883 1 0.4570426687308716 5.112875071071384 15.255552389690891 0 0 0
882 1 2.228284096040505 5.262817113715668 12.955696283766486 0 0 0
884 1 2.9894732814960765 3.6560272197943835 15.276815342207728 0 0 0
887 1 5.595689729154311 5.273297799832083 15.30237131822071 0 0 0
885 1 4.829790863053704 3.7476953369763617 13.101678742551393 0 0 0
888 1 8.124012727601192 3.6438318009584787 15.291434601066241 0 0 0
886 1 7.3696235871474824 5.290632218759045 12.964431179370449 0 0 0
889 1 10.022999939909013 3.7767779289592074 13.039570091918057 0 0 0
891 1 10.726827472242844 5.204309791416685 15.293917168122277 0 0 0
890 1 12.577657335731736 5.448088511632763 13.008791213041992 0 0 0
892 1 13.504963153132765 3.6950240114292257 15.403565649939639 0 0 0
895 1 16.07784801833637 5.149705208199899 15.29632216497952 0 0 0
893 1 15.226115510045886 3.8196630997545675 13.04805141165444 0 0 0
896 1 18.72643494992199 3.741313608826797 15.251553412543185 0 0 0
894 1 17.760753384920427 5.26325321688639 13.021757947953962 0 0 0
897 1 20.491573888202375 3.778624618927271 12.94325117261019 0 0 0
899 1 21.33412268520946 5.22261064062141 15.148421433664787 0 0 0
898 1 23.00265406406456 5.184067649653116 12.946262514063271 0 0 0
900 1 23.840583720386896 3.7125383988274407 15.316022893472198 0 0 0
903 1 26.29495371697263 5.200519316886602 15.316986513122835 0 0 0
901 1 25.574879117969484 3.8051391191567365 13.11482808527884 0 0 0
904 1 28.843705284609467 3.6895952288297433 15.338917251182696 0 0 0
902 1 28.151874701768463 5.30824653993238 13.101742995560127 0 0 0
905 1 30.651400513530348 3.621749925062108 13.121601618934564 0 0 0
906 1 33.29884366542832 5.267669769880319 13.143767952841253 0 0 0
907 1 31.536608548961578 5.182043347168916 15.452021570902367 0 0 0
908 1 34.14033528133095 3.6826103564775643 15.351452413678155 0 0 0
911 1 36.849313449358476 5.192635786248793 15.322283271992337 0 0 0
909 1 35.86240273742486 3.7223261465783786 13.103744637368065 0 0 0
912 1 39.41793083947037 3.777271418453214 15.120121339537256 0 0 0
910 1 38.525350651106734 5.299601453849032 13.091017999676376 0 0 0
915 1 41.967491379118684 5.067990232247659 15.228921286916005 0 0 0
914 1 43.78773055662607 5.092109135468554 13.041364575855843 0 0 0
913 1 41.173978757354476 3.734697859703008 13.098606712023047 0 0 0
916 1 44.758758538910726 3.4366489019969615 15.22412038846079 0 0 0
919 1 47.2191994172709 5.106511296571078 15.138916701917736 0 0 0
917 1 46.45826952191997 3.6588211165377764 12.991432107470695 0 0 0
918 1 49.09510848580503 5.139564652740214 12.956455824823662 0 0 0
920 1 49.871208651077794 3.5841440980332813 15.283503586371701 0 0 0
922 1 2.105635273693532 8.26736053149473 12.952485275240495 0 0 0
921 1 -0.43110675357975875 6.706725101782958 13.0581294200538 0 0 0
923 1 0.4274044187679612 8.271667012184563 15.167426997519465 0 0 0
924 1 2.992291132152865 6.76240634820479 15.095050550239897 0 0 0
927 1 5.600192668989534 8.310038562059347 15.146800666507962 0 0 0
925 1 4.801855862555653 6.796805233954032 12.952334223260577 0 0 0
926 1 7.382611300469127 8.282444940071501 12.931268202983258 0 0 0
928 1 8.238262705835888 6.652440091277596 15.11058119252211 0 0 0
929 1 10.084643308926129 6.781136115315643 12.987050299197954 0 0 0
931 1 10.761623495118144 8.295780270905892 15.197296304646443 0 0 0
930 1 12.532170127359917 8.450975070152875 12.913486739725602 0 0 0
932 1 13.372057636303953 6.857827784009505 15.182444748122832 0 0 0
935 1 16.142765832474176 8.195052805773775 15.168131701218439 0 0 0
933 1 15.226075403601042 6.834486936453091 12.972095477903332 0 0 0
936 1 18.8285575915889 6.645676077607748 15.146303342382852 0 0 0
934 1 17.801033087636718 8.22077986090286 12.934063652562106 0 0 0
937 1 20.460317643011347 6.73082294745384 12.996552905839765 0 0 0
939 1 21.34460025917809 8.27886462837951 15.113812208916448 0 0 0
938 1 23.052455380122456 8.51740268607067 12.866280787795928 0 0 0
940 1 23.835139279666357 6.858266788767839 15.16120461503533 0 0 0
943 1 26.30847021055881 8.363674047826187 15.173120761444482 0 0 0
941 1 25.611566044513296 6.775863502260249 12.977988001200867 0 0 0
944 1 29.005034750734055 6.7179687006252085 15.376892835544485 0 0 0
942 1 28.12774732544908 8.265703114909863 12.952538328197015 0 0 0
945 1 30.74559203740025 6.651678987827344 13.127564562887041 0 0 0
947 1 31.65517003612724 8.168257086670229 15.258417699309827 0 0 0
946 1 33.388781112525436 8.284961577752005 13.08075952915117 0 0 0
948 1 34.35714341861669 6.651307008319822 15.37950286908631 0 0 0
951 1 36.90955749495336 8.21738235984038 15.231143449381463 0 0 0
949 1 36.07695668727365 6.742997463539091 13.003117479141672 0 0 0
952 1 39.51087762011248 6.852676039742992 15.161593067610642 0 0 0
950 1 38.60626208193777 8.22830265817942 12.973893854367226 0 0 0
953 1 41.25640698730953 6.739671816403188 13.0086257988622 0 0 0
955 1 42.12772655250728 8.278916147952687 15.194126484567988 0 0 0
954 1 43.9827705792314 8.179564169956008 13.013028732961878 0 0 0
956 1 44.62230736073083 6.599831846539281 15.176188768487906 0 0 0
959 1 47.04136348343421 8.21275011239564 15.185919115899766 0 0 0
957 1 46.43565164772946 6.6702856675648245 12.991729526975597 0 0 0
960 1 49.7974331394627 6.785672146321163 15.154942817842652 0 0 0
958 1 48.95497673717118 8.314893467366485 12.913352625176532 0 0 0
963 1 0.41524497039450814 11.275199348016839 14.97071211452076 0 0 0
1004 1 2.930583706428846 12.765393463782015 14.880727426426352 0 0 0
964 1 3.187922575245259 9.922325399703784 14.916188539611118 0 0 0
967 1 5.713535935116745 11.21209662758112 14.979327600980831 0 0 0
968 1 8.179819234068638 9.769962144373954 15.072565655966573 0 0 0
969 1 9.957810554922371 9.762666639049913 12.950708930533052 0 0 0
971 1 10.832179003174963 11.304855883834778 15.066579285952445 0 0 0
970 1 12.486243866884202 11.30438157770008 12.883727065071223 0 0 0
972 1 13.395279897875648 9.827163266816264 15.062531864437844 0 0 0
1012 1 13.326078780292441 12.882590711172526 14.98812516624181 0 0 0
975 1 16.131247186065405 11.338240937944644 15.105992322257043 0 0 0
973 1 15.25388095716914 9.926984553665548 12.937224800128948 0 0 0
976 1 18.737433334591916 9.707537647575197 15.062967674152867 0 0 0
1016 1 18.720025867971746 12.963154791932102 14.976697138717446 0 0 0
974 1 17.74400948799198 11.402770404427464 12.860429205208309 0 0 0
979 1 21.278108817521513 11.332620259547227 15.01113195287452 0 0 0
1020 1 23.80779954860612 12.869360797637892 14.922155856073463 0 0 0
1017 1 20.40544963164229 12.804592107202005 12.958780892265134 0 0 0
980 1 23.867802868267198 9.850171148862326 15.046934851673306 0 0 0
983 1 26.49180883061924 11.284494240305595 15.039022014954485 0 0 0
981 1 25.600698307630655 9.839718298368098 12.847874507001569 0 0 0
984 1 29.181398810325764 9.747237588325508 15.205119858578108 0 0 0
1024 1 29.08598390150009 12.794688648329537 15.04895632435103 0 0 0
982 1 28.21178988850362 11.195524661988166 12.929347764063401 0 0 0
987 1 31.65785336261133 11.201727945848477 15.094143112369618 0 0 0
986 1 33.37290871702402 11.229758712454371 12.934501186624795 0 0 0
1025 1 30.82540051344808 12.812358263021313 12.852619742085304 0 0 0
985 1 30.807902221583166 9.741612418121399 12.962101083997725 0 0 0
988 1 34.25354026446355 9.811584752188072 15.225061938513765 0 0 0
991 1 36.841100001374656 11.289834018536785 15.064724349751904 0 0 0
1028 1 34.25885312022805 12.89323670494558 15.008911405950064 0 0 0
989 1 35.88776595170931 9.72549979034327 13.028598436390602 0 0 0
992 1 39.46431687825307 9.659459565342384 15.158105070397742 0 0 0
1032 1 39.69364390530001 12.823823806184382 15.008711435754888 0 0 0
990 1 38.64324745627687 11.313750056280346 12.910283600816877 0 0 0
993 1 41.18810629364327 9.731325932088549 12.995755378475325 0 0 0
995 1 42.22170728435239 11.197982139953906 15.130438981859491 0 0 0
996 1 44.631000320653825 9.605181780910987 15.187072257367376 0 0 0
994 1 43.73620531468478 11.364083978339082 12.861299442122613 0 0 0
1033 1 41.21359063250695 12.755061995060192 12.857110395604114 0 0 0
1036 1 44.69926690606417 12.656624762702087 15.138343243261723 0 0 0
999 1 47.30883445304164 11.145390124052591 15.137481422446308 0 0 0
997 1 46.33833771675367 9.721883226968444 12.898276032937078 0 0 0
961 1 51.40530485348742 9.648015168984683 12.982004003650312 -1 0 0
1000 1 49.796868993671836 9.746196054537382 15.110263543612119 0 0 0
1040 1 49.79183734212366 12.726287525603738 14.915433024990634 0 0 0
1003 1 0.4937326672580672 14.317390734456257 14.937610507313712 0 0 0
1445 1 2.962292774637121 15.725061697666511 14.922237684319331 0 0 0
1007 1 5.7454027028327435 14.30878535015577 15.00043518488319 0 0 0
1008 1 8.21666069928883 13.04387987740164 15.026617240878704 0 0 0
1406 1 8.286326497997193 15.990301646532636 14.815011426239078 0 0 0
1011 1 10.773791947629515 14.369144016788763 14.903228598629203 0 0 0
1410 1 13.363078463478184 15.817001532663763 14.861618859378051 0 0 0
1015 1 16.032782691056006 14.428901613543424 14.866670811945383 0 0 0
1056 1 18.552774122312766 15.939597319985822 14.842517665937688 0 0 0
1019 1 21.255143563988554 14.477748704984464 14.961969128227475 0 0 0
1060 1 23.751100303189773 15.865157743892887 14.682546028933798 0 0 0
1023 1 26.46861573594432 14.280820025409497 14.950979327828664 0 0 0
1064 1 28.997406258013275 15.78280577263379 14.848568182289746 0 0 0
1027 1 31.715230677145986 14.418779166576734 14.93256694711173 0 0 0
1068 1 34.335828541694 15.914341313834928 14.93544394797912 0 0 0
1031 1 36.81317685586788 14.24964630411015 14.967915058706597 0 0 0
1072 1 39.49851397178166 15.922383435518238 14.931182063159957 0 0 0
1035 1 42.135480574543266 14.459041906283943 14.989901660416509 0 0 0
1076 1 44.56818283253746 15.858788446179947 14.944819087877113 0 0 0
1039 1 47.3824324111598 14.247290789461132 15.036853534889925 0 0 0
1080 1 49.90166972879449 15.668223164381892 14.95374808961614 0 0 0
1002 1 0.4125293686488636 17.228224202090594 14.831023252985942 0 0 0
1044 1 2.9577504836968993 18.887918573536066 14.928670419943892 0 0 0
1407 1 5.6540299269892405 17.291424394412797 14.91669755427305 0 0 0
1448 1 8.16708297169919 18.99705192029808 14.788697095125249 0 0 0
1449 1 10.941084425684634 17.429945132371156 14.922613670143686 0 0 0
1452 1 13.492797116912977 18.934703215640457 14.85157504784704 0 0 0
1453 1 16.00853384165987 17.50653627490726 14.858335958042284 0 0 0
1456 1 18.66448500830504 19.027400056968457 14.674920752120713 0 0 0
1460 1 21.060922067176474 17.35609519248052 14.806029667342987 0 0 0
1463 1 23.825266085456605 18.86028615855469 14.613786498077442 0 0 0
1461 1 26.405655462774757 17.388147100592484 14.858456164872036 0 0 0
1062 1 29.217480516745717 18.917615782185102 14.875541887835869 0 0 0
1067 1 31.68967736517585 17.348430878516623 14.9187328562785 0 0 0
1505 1 34.34575242413318 18.927013372105876 14.845044203969799 0 0 0
1071 1 36.781565967338125 17.355768607270193 14.924590575867533 0 0 0
1112 1 39.446785100431356 19.148468218837 14.884539335586247 0 0 0
1075 1 42.092884227253094 17.367331956203518 14.911105924572551 0 0 0
1116 1 44.76849637133641 19.043403935742685 14.876041255720207 0 0 0
1079 1 47.23634278589971 17.320026104579526 14.93293428104799 0 0 0
1478 1 49.8340375395163 18.856658000194468 14.94122785227242 0 0 0
1043 1 0.39523272552037425 23.26820842683032 14.782113316073758 0 0 0
1444 1 0.4851492241552384 20.289694544640483 14.85038755722513 0 0 0
1084 1 3.0354789434711953 21.944938165556433 14.780590096574464 0 0 0
1447 1 5.589313595224391 20.30468650745076 14.854509448091038 0 0 0
1485 1 5.731643334423621 23.350746091182238 14.884889633484883 0 0 0
1488 1 8.362551802442246 21.980609517508498 14.826850941206475 0 0 0
1491 1 10.90608807707921 23.396042642947656 14.858749254722468 0 0 0
1451 1 10.851942505101656 20.361160497702198 14.768034473887235 0 0 0
1492 1 13.456055133315623 21.805865165150273 14.76418131561513 0 0 0
1455 1 16.104291942100012 20.52638446471849 14.683410885382955 0 0 0
1496 1 18.594856838020444 21.9094839496948 14.593094251713504 0 0 0
1459 1 21.271779882320125 20.432224315405332 14.645214185132344 0 0 0
1499 1 21.334154779119025 23.28864970452901 14.602859383849525 0 0 0
1500 1 23.87214963574039 21.858323558515025 14.699392464360017 0 0 0
1063 1 26.37348906078732 20.378610963566796 14.737370500755052 0 0 0
1503 1 26.573941540097124 23.220608120698806 14.724474891249173 0 0 0
1504 1 29.172279644939085 21.930985484147286 14.716145877940182 0 0 0
1467 1 31.72084549179093 20.41176666627512 14.7451166420478 0 0 0
1507 1 31.881346428218922 23.335054506551586 14.7377349523777 0 0 0
1512 1 37.097749384924455 23.21278458680879 14.716114892456345 0 0 0
1508 1 34.38666724064912 21.908222624371493 14.774178811132382 0 0 0
1509 1 36.88325111251082 20.305413684975182 14.835857834424367 0 0 0
1513 1 42.22265194612562 20.26255777832091 14.847860783722542 0 0 0
1516 1 42.33731347515345 23.420653826556038 14.786701476856843 0 0 0
679 1 44.788761480103744 21.932176507065826 14.802363496653928 0 0 0
1078 1 47.403763511235766 23.370635096142475 14.79950168353201 0 0 0
680 1 47.337110346994336 20.411841001405875 14.893570948729414 0 0 0
1520 1 49.838413061580226 21.9926341530883 14.921207646021841 0 0 0
1083 1 0.4210272257982889 26.323417981110058 14.847204871685598 0 0 0
1482 1 3.12462851157919 24.860336504257543 14.930517298933717 0 0 0
1487 1 5.632305655625991 26.234527635227284 14.814965819708512 0 0 0
1486 1 8.334016189515411 24.881430019572612 14.399431954474 0 0 0
1529 1 11.124511239030118 26.146566277296884 14.222567285347745 0 0 0
1532 1 13.75566548416992 26.022633146936048 13.088731595057139 0 0 0
1495 1 16.108098189463814 23.656068697812717 14.395590350978585 0 0 0
1933 1 15.16351858600884 25.345560232475083 16.313564433392386 0 0 0
1536 1 18.349862553249512 25.160518028141254 14.331279871288313 0 0 0
1937 1 20.53872350085732 25.42295399018783 16.140179228746693 0 0 0
1538 1 23.1302412371704 26.093522910105644 13.056238734990902 0 0 0
1938 1 22.851338450835676 26.90924280355935 15.888030947874103 0 0 0
1540 1 24.44039887412485 24.821860494494636 14.920305451812126 0 0 0
1102 1 28.212976265689118 26.213616530741472 12.901433458038337 0 0 0
1544 1 29.277847906932 24.894419786138023 14.948599215012313 0 0 0
1108 1 31.969556163657014 26.208620602306734 14.604552533414058 0 0 0
1110 1 34.676074207603506 25.143664705826044 14.609269728070053 0 0 0
1115 1 37.23632808006788 26.35945241172093 14.857102577725769 0 0 0
1515 1 39.674423733010855 24.418511081166418 14.804932021401232 0 0 0
1114 1 42.41180915831073 26.64088771674671 14.941707592404741 0 0 0
1514 1 44.92735831086941 24.85332673076344 14.732223905518127 0 0 0
1117 1 47.27980271171039 26.418502813104183 14.81539394909104 0 0 0
1081 1 49.75768953148943 24.846912306030056 14.83686550255994 -1 0 0
721 1 2.1711010246574363 29.179511731543236 13.150957628033277 0 0 0
1123 1 0.3912109493719824 29.122025302267048 15.184281362640785 0 0 0
1124 1 4.651085573156173 27.99346852669116 13.103181587293456 0 0 0
1525 1 6.06156515989407 28.956719064546306 15.909722704713325 0 0 0
1521 1 3.111870540451272 27.697928209836867 15.384090396618719 0 0 0
1122 1 3.4207264975214255 30.292821988159915 15.539125511097426 0 0 0
1526 1 8.670512260644562 30.425008578909086 15.764301887220022 0 0 0
1125 1 7.437947820709499 29.420997109923974 13.062476564758269 0 0 0
1128 1 8.52298754667156 27.71046064749529 14.852108304281582 0 0 0
1129 1 9.96413358303439 30.30627183925992 13.255783140452404 0 0 0
1531 1 10.985057751294296 28.420020742992754 15.93485174925989 0 0 0
1132 1 12.453925636620825 28.640666567624145 13.025840623876196 0 0 0
1572 1 13.49484513270861 30.26524590329428 15.830388522078907 0 0 0
1535 1 16.374424464123006 27.129173759133028 14.251954161099034 0 0 0
1530 1 13.8078082510268 27.761148817967353 15.15174448883852 0 0 0
1573 1 15.185658487045869 30.157952996781717 13.79790230866867 0 0 0
1534 1 17.935975975327224 29.40549791071156 14.559359374500099 0 0 0
1977 1 20.294388456289703 28.616808451127604 15.946337132972092 0 0 0
1139 1 20.368536690211567 30.096240687466533 13.336815957512743 0 0 0
1539 1 20.84291022351173 27.38017251567501 13.762686466095383 0 0 0
1580 1 23.11925570521328 28.720234663351604 13.335090975821464 0 0 0
1978 1 23.482352635776625 30.217600107646632 15.90358929533484 0 0 0
1981 1 25.40568948671811 28.158607559054474 15.649980281359746 0 0 0
1543 1 25.561845723501424 27.470790996360776 12.952027190367486 0 0 0
1141 1 25.523021409581744 30.37116782181473 13.073193898625425 0 0 0
1942 1 28.107928876811627 27.43949270023908 15.549852728077797 0 0 0
744 1 28.022033158778324 28.987212337964266 13.238176751665742 0 0 0
1144 1 28.963971318660544 30.234623580272576 15.799009759672701 0 0 0
1107 1 30.531127571257162 27.606854605706815 12.989479155340817 0 0 0
1145 1 30.592238041120435 30.301809441492765 13.335921360778016 0 0 0
1545 1 31.070701933486824 28.459265614867263 15.776425229202983 0 0 0
1106 1 33.19876622291201 28.71165437259878 13.668941571341264 0 0 0
1148 1 33.81447578568853 30.3660351900889 15.602509429521513 0 0 0
1149 1 35.52698496095104 30.153018803233145 13.228231094595372 0 0 0
1111 1 35.57554693098042 28.37234580098994 15.761356264452868 0 0 0
1152 1 38.20725076753587 28.99512118843778 13.432356334589533 0 0 0
1156 1 39.81055416045618 27.650279349195266 15.15725597497875 0 0 0
1157 1 42.22408967708242 29.34022140938285 14.869879963004848 0 0 0
1119 1 44.99344398330177 27.975750706801378 15.178854207019008 0 0 0
1160 1 47.399452987107125 29.787735683446094 15.169070014739845 0 0 0
758 1 51.4931595380516 27.99161572007862 12.862759089893341 0 0 0
797 1 48.98554113317263 29.566621272969975 12.847604897235051 0 0 0
1118 1 49.749468807121914 27.931129210861194 14.98925185585343 0 0 0
723 1 2.122467910920486 32.05974397384077 13.199550041970497 0 0 0
1522 1 0.8039728732143416 31.814012217315955 15.622687966244428 0 0 0
724 1 4.859499706201781 30.730464984154665 13.293625786112164 0 0 0
1164 1 3.331727611086281 33.338705777237436 15.322906230507265 0 0 0
1165 1 4.989580164405109 33.60131540506252 12.939358915082423 0 0 0
1127 1 5.835762132270968 31.73234097091806 15.737180152946532 0 0 0
1126 1 7.4963876971886005 31.92491857205318 13.360867318230154 0 0 0
1168 1 8.208137919201876 33.40860934899811 15.654083371171334 0 0 0
1169 1 10.149343765292137 33.24309696384034 13.28634974642226 0 0 0
1131 1 11.057189698432698 31.66703315805725 15.540291373887005 0 0 0
1130 1 12.558983031178329 31.627000193020912 13.296979784341472 0 0 0
1172 1 13.601676032620933 33.16212979735844 15.554155005675833 0 0 0
1575 1 16.143028482132454 31.637263282695216 15.801349870194798 0 0 0
1173 1 15.072838462034394 33.315582175464854 13.182020446447863 0 0 0
1574 1 18.61744078613011 32.92950121136159 15.440522592575954 0 0 0
1176 1 17.711654854249968 31.75790691254349 13.075299990370137 0 0 0
1177 1 20.43872140521416 32.95337338928663 13.288615768193198 0 0 0
1577 1 21.15289152378752 31.618814002678157 15.813201672765949 0 0 0
1138 1 22.891471676563665 31.742580951302585 13.364277486543429 0 0 0
1180 1 23.59140409716705 33.25045477722934 15.69390476699938 0 0 0
1143 1 26.317924629877606 31.698065960412336 15.539876742652332 0 0 0
1181 1 25.44956163961125 33.27708928620404 13.30950859355967 0 0 0
1142 1 28.12236590136584 31.889489818148142 13.249602276934109 0 0 0
1184 1 28.875639973319323 33.2834354621526 15.633158920162826 0 0 0
1185 1 30.773059187412613 33.31201699641031 13.24732348234478 0 0 0
1147 1 31.401575836293535 31.707302805185968 15.575022408600418 0 0 0
1188 1 34.06259793210961 33.13739493499337 15.599147610328718 0 0 0
1146 1 33.0920530409677 31.67094314645304 13.100666321262565 0 0 0
1151 1 36.78273576259238 31.41451935447199 15.625986201860279 0 0 0
1189 1 35.65776088485069 33.131327951751864 13.166104673221712 0 0 0
1193 1 40.796939381604034 33.159782205389725 13.04479780861695 0 0 0
1153 1 39.674287071137954 30.558487019292166 15.041415663420242 0 0 0
1150 1 38.2705527733289 31.942769506550427 13.117123064485758 0 0 0
1192 1 39.26894052996458 33.261692286664584 15.484751362205996 0 0 0
794 1 43.580059257019144 32.00397535585574 12.950103373682001 0 0 0
1155 1 42.04624275472932 32.07943788812667 15.367365539328711 0 0 0
1597 1 44.62962171065834 33.59184728158466 15.27340383429023 0 0 0
1159 1 44.55020431539299 30.794428797558368 15.331602464596935 0 0 0
1199 1 46.18979736901696 33.85242074017884 13.030508375098817 0 0 0
796 1 46.28067525688351 30.95892589757183 12.908112723652803 0 0 0
1161 1 51.45051839546038 33.34594795639357 12.858075895325126 -1 0 0
1561 1 51.560129923810166 30.669686952723282 12.932373188193672 -1 0 0
1560 1 50.276901079374326 30.726568894954106 15.139468241273491 0 0 0
1200 1 48.683717055137976 32.19764238741774 13.560293706312759 0 0 0
1204 1 2.7863073693084055 -2.4635499322301997 19.87713371097987 0 0 0
1201 1 -0.3610323430173281 -2.406026912137766 17.585689696976754 0 0 0
1562 1 2.071937210627153 -4.02362922155998 17.57278066032845 0 1 0
1205 1 4.745831476434879 -2.32383965385284 17.763277519548115 0 0 0
1566 1 7.584400215953421 -3.723500793493405 17.932172119467978 0 1 0
1209 1 10.058419731617384 -2.3325339775609697 17.712674084445855 0 0 0
1212 1 13.346231754888468 -2.313211160414537 19.877352935922683 0 0 0
1570 1 12.572903954615084 -3.8091048680652424 17.840695110834577 0 1 0
1213 1 15.300807096991024 -2.3529250741249172 17.521583185395414 0 0 0
1614 1 18.320722046099746 -2.9982650504977295 19.699090317384456 0 0 0
1216 1 17.574228113338517 -4.22693590188096 17.593832498675223 0 0 0
1217 1 20.249847861808504 -2.3669247438823575 17.788054289449068 0 0 0
1578 1 22.91705322959202 -3.7755871264614638 17.888082883100786 0 1 0
1221 1 25.51987318523199 -2.3581275958530954 17.682778950931162 0 0 0
1582 1 28.085554721243525 -4.01318901057639 17.963660123680743 0 1 0
1225 1 30.67946374683448 -2.36625429934577 17.724883383651367 0 0 0
1586 1 33.25206337357649 -3.9103465014819503 17.831742961273637 0 1 0
1229 1 35.84965797355771 -2.2902832555427097 17.69930474961117 0 0 0
1590 1 38.4680587345663 -3.7477394136110824 17.623316767075398 0 1 0
1233 1 41.099152985782695 -2.2571879867829807 17.553933372014317 0 0 0
1594 1 43.522879536537744 -3.882838115519212 17.686227417935402 0 1 0
1237 1 46.200522904518664 -2.681614512173747 17.5935812179372 0 0 0
1239 1 47.39957170180806 -1.302955852954899 19.802374146123693 0 0 0
1240 1 48.68200062387626 -3.9211045558303805 17.734720862591487 0 0 0
1238 1 48.92195984962659 -1.037187249180441 17.485989834273205 0 0 0
1242 1 2.1248770503861056 2.066980225688635 17.559796808194722 0 0 0
1202 1 2.1431766347169154 -0.9052107878557001 17.609950543926665 0 0 0
1243 1 0.20957988801857086 2.01893144695305 19.82260287116621 0 0 0
1247 1 5.539382924543081 2.217718288968733 19.846121783997017 0 0 0
1245 1 4.74302374229495 0.682620396098855 17.66034668042608 0 0 0
1248 1 8.109028227065604 0.6907270765789457 19.87242746880945 0 0 0
1246 1 7.415515703965653 2.047565413297465 17.615351418921076 0 0 0
1206 1 7.268098697714401 -0.8696113926550781 17.547872161660088 0 0 0
1249 1 9.931441983531217 0.7110942107759364 17.594884400284993 0 0 0
1251 1 10.839954333284075 2.034376337823515 19.854827917437177 0 0 0
1210 1 12.650980316663894 -0.8001854465840239 17.69698973868095 0 0 0
1250 1 12.601004621344023 2.3215245782473053 17.597195664393553 0 0 0
1255 1 16.15013791821734 2.1606034835490977 19.86421656020093 0 0 0
1253 1 15.302475139136238 0.5786567203770021 17.74486875685938 0 0 0
1256 1 18.633582675317516 0.6712303002581521 19.796871486445863 0 0 0
1214 1 17.8165197866755 -0.9454994303647157 17.670709923303328 0 0 0
1254 1 17.881822311273787 2.164520278797493 17.54030112432396 0 0 0
1257 1 20.426928472524036 0.6056869238885794 17.60756187991056 0 0 0
1218 1 23.030111928451284 -0.8026254606337493 17.688151506695558 0 0 0
1258 1 23.10656137777358 2.103277636361266 17.653067838661286 0 0 0
1261 1 25.5504164243906 0.5596493780240683 17.664138478642364 0 0 0
1222 1 28.12912104649337 -0.9080349552160434 17.771949944834443 0 0 0
1262 1 27.92745886976684 2.1417204123327274 17.66614551244778 0 0 0
1265 1 30.63004156583154 0.5330682194081913 17.641654501352573 0 0 0
1226 1 33.32198407740701 -0.9760133008686331 17.759651137657492 0 0 0
1266 1 33.30812118767629 2.1256305104625186 17.57506342497311 0 0 0
1267 1 31.622195395121697 2.260962041785467 19.713923029845965 0 0 0
1271 1 36.787027997873096 2.052571576142764 19.84438117593974 0 0 0
1269 1 35.908591680529426 0.5851745384552887 17.643461292383666 0 0 0
1268 1 34.232992956047624 0.5965241819042326 19.881181120546486 0 0 0
1230 1 38.44568187628769 -0.9179530641219711 17.73092479648795 0 0 0
1270 1 38.672833460654516 2.0598384367269684 17.55901912246542 0 0 0
1235 1 42.02022341849148 -0.8715240587544444 19.793646772544903 0 0 0
1234 1 43.66770925988473 -0.8670610716786133 17.569085640082925 0 0 0
1274 1 43.877841818385505 2.0316895634173306 17.44239055201467 0 0 0
1275 1 42.046947279304206 2.204080903481225 19.716890028036296 0 0 0
1273 1 41.24921553169173 0.7390702875449664 17.526696008132294 0 0 0
1276 1 44.64185543016404 0.5077260584667878 19.74007293189594 0 0 0
1277 1 46.33169595053673 0.31549690815108544 17.539338785991006 0 0 0
1279 1 47.3030580003759 1.9273662112645926 19.716064180576797 0 0 0
1280 1 49.84250705455504 0.38344557784956557 19.87214697267667 0 0 0
1278 1 48.96051017683749 1.9708591274069365 17.545399165922976 0 0 0
1241 1 51.496123841939564 0.5694947210027506 17.637685938550362 -1 0 0
1283 1 0.3022592220968928 5.203230624734244 19.708450834104557 0 0 0
1282 1 2.1407432847180807 5.047152308598566 17.462041431770803 0 0 0
1281 1 -0.46503029285346575 3.4996826056885784 17.55518128894393 0 0 0
1284 1 2.9928811866683644 3.5835951937935704 19.814360770486644 0 0 0
1287 1 5.609081666633226 5.09843648420115 19.749803586320223 0 0 0
1285 1 4.822521738004162 3.7150537037026634 17.425855174472247 0 0 0
1288 1 8.21708120405514 3.6228274923806545 19.762519834450668 0 0 0
1286 1 7.394468772302171 5.152593731945361 17.51764610957145 0 0 0
1289 1 9.977997234260341 3.578388608657283 17.39615765774102 0 0 0
1291 1 10.814779253885204 5.096801437650404 19.583292743236218 0 0 0
1290 1 12.61138018158529 5.20297875773514 17.341670400235227 0 0 0
1292 1 13.53560703101431 3.539022009021961 19.817809741379694 0 0 0
1295 1 16.1095260853696 5.37095908723426 19.590032209599144 0 0 0
1293 1 15.241571629631455 3.53437118251534 17.56593932974578 0 0 0
1296 1 18.82089552299257 3.883110692960331 19.574433335446233 0 0 0
1294 1 17.82054811914529 5.181098955156193 17.378020139763613 0 0 0
1297 1 20.33156331792742 3.6112248720158995 17.531592758223546 0 0 0
1299 1 21.364817418546547 5.228622678848902 19.795137394676857 0 0 0
1298 1 23.06012579950452 5.299466624064033 17.50656960086084 0 0 0
1300 1 23.946472016324666 3.6040491134801034 19.725564047652163 0 0 0
1301 1 25.690985225783614 3.739272546686161 17.644113525301158 0 0 0
1303 1 26.393258421342598 5.226788268181306 19.744684045512958 0 0 0
1304 1 29.020011710413804 3.676865876504152 19.839705133380864 0 0 0
1302 1 28.11810031390909 5.256123987493174 17.427453837828278 0 0 0
1305 1 30.694342770313522 3.62265819732829 17.54384786240624 0 0 0
1306 1 33.41142032211998 5.180928811953871 17.604262831181725 0 0 0
1307 1 31.658141827146483 5.226616200889296 19.742713269275793 0 0 0
1308 1 34.26015350086159 3.740501341360238 19.750062191688237 0 0 0
1309 1 36.10495934955128 3.5837082726866782 17.527252432642687 0 0 0
1311 1 36.83546602538139 5.162125297399065 19.69029819534419 0 0 0
1312 1 39.4692533192207 3.556838962623745 19.80856329921832 0 0 0
1310 1 38.56104538823092 5.197058190531855 17.432692286041167 0 0 0
1313 1 41.160772305570376 3.5931150768070914 17.385145483098256 0 0 0
1314 1 43.81004552850196 4.797104529144251 17.536943664771048 0 0 0
1315 1 42.0521792570526 5.128190700102984 19.64993186211696 0 0 0
1316 1 44.64148824911845 3.487221130932183 19.687224994095416 0 0 0
1319 1 47.29359317536775 5.04420105377489 19.705189435870437 0 0 0
1317 1 46.42253310209669 3.5332428058396435 17.522938782384557 0 0 0
1318 1 48.92572489616151 5.096688197749678 17.421254219334738 0 0 0
1320 1 49.76255344117662 3.590656298281104 19.775664947718713 0 0 0
1321 1 -0.4750017160936523 6.7074788453059995 17.348887754227626 0 0 0
1323 1 0.3308352853167328 8.152294209316603 19.54791316958922 0 0 0
1322 1 2.185462516237986 8.207112035173433 17.304020578339028 0 0 0
1324 1 2.977226651661369 6.676178196642619 19.60004834898716 0 0 0
1325 1 4.747920955174959 6.70727364643022 17.384923609413995 0 0 0
1327 1 5.589186234485381 8.270928608598247 19.535296191983278 0 0 0
1326 1 7.326982296865398 8.248752817128118 17.393278258177233 0 0 0
1328 1 8.247610731651962 6.648583641333788 19.44844102196675 0 0 0
1329 1 9.933146321786152 6.633044404796157 17.318259411986766 0 0 0
1330 1 12.555558092008507 8.289782193242758 17.214573291918782 0 0 0
1331 1 10.740728422487736 8.277641875485108 19.459109612673032 0 0 0
1332 1 13.388713998923183 6.764874641349106 19.533165945633336 0 0 0
1335 1 16.07933017276264 8.276885659718014 19.367128263220195 0 0 0
1333 1 15.186104153306818 6.701238464004316 17.348307768742718 0 0 0
1334 1 17.80685972580684 8.212236314372895 17.27085415518099 0 0 0
1336 1 18.809792752398092 6.9065047168675076 19.577139319039127 0 0 0
1337 1 20.519799293173314 6.575262042635098 17.40278378676135 0 0 0
1339 1 21.326648387178516 8.220377435724828 19.42629743446785 0 0 0
1338 1 23.145157826819545 8.281248574531315 17.310859852371937 0 0 0
1340 1 23.792467009449105 6.782007484166035 19.709359252800915 0 0 0
1341 1 25.521640334755432 6.739681411123328 17.439262476867647 0 0 0
1343 1 26.36734789017398 8.262435193325295 19.62804553162061 0 0 0
1342 1 28.149420572189875 8.400820896097356 17.393076976951217 0 0 0
1344 1 28.91993004899559 6.789086710368682 19.628928673397493 0 0 0
1345 1 30.69911588124611 6.6988251678640065 17.58453882581282 0 0 0
1347 1 31.699965428393337 8.271916698078485 19.65065181305653 0 0 0
1346 1 33.43580674983582 8.285360513747916 17.44629957148468 0 0 0
1348 1 34.23061305815581 6.738996554228141 19.69919771995582 0 0 0
1349 1 36.05173588276442 6.75305667928812 17.5196222386634 0 0 0
1351 1 36.81463080025958 8.420571983901265 19.58722095990151 0 0 0
1350 1 38.59897855122411 8.13024147166445 17.40778414449127 0 0 0
1352 1 39.45651568494266 6.531610066842134 19.56454839728239 0 0 0
1353 1 41.214268354981115 6.801748054451263 17.26717284965846 0 0 0
1354 1 43.80243085582215 8.165260609089378 17.452993059116412 0 0 0
1355 1 42.010657843181264 8.235969268488224 19.493083468238154 0 0 0
1356 1 44.68829956146267 6.562648811555771 19.526637067230084 0 0 0
1359 1 47.28313147643597 8.301915661783514 19.719030702380863 0 0 0
1357 1 46.32591532197583 6.595971338706708 17.39290789676942 0 0 0
1360 1 49.831635267635704 6.636470540792898 19.633137305399657 0 0 0
1358 1 48.99009427847908 8.134189162966338 17.39365565752454 0 0 0
1401 1 -0.4102469100054305 12.723679730064006 17.16839467669303 0 0 0
1363 1 0.40216121090645907 11.257580897661278 19.414077240239532 0 0 0
1362 1 2.1174582238355546 11.274450884038062 17.16870092245305 0 0 0
1361 1 -0.36944323776724275 9.698064327107327 17.237136917877443 0 0 0
1765 1 3.0080837184448184 12.910449639008696 19.393841398097884 0 0 0
1364 1 3.049193451964237 9.7886777251378 19.518428645169056 0 0 0
1365 1 4.591590145178187 9.749597536927208 17.19686407488918 0 0 0
1367 1 5.613734536603002 11.260556868191605 19.314343069357875 0 0 0
1405 1 4.6831837895754855 12.831421908779383 17.11340359064509 0 0 0
1368 1 8.178165113669923 9.880684436989098 19.329825761772085 0 0 0
1366 1 7.417529713877284 11.344483612076965 17.134257593723273 0 0 0
1766 1 8.154580912793044 12.884947506882146 19.349154494225253 0 0 0
1409 1 9.920290526138157 12.914419058420087 17.06269479307366 0 0 0
1369 1 9.940123641163337 9.932657405200809 17.235954699686637 0 0 0
1371 1 10.930461758439106 11.577801204712742 19.360867530326967 0 0 0
1370 1 12.591449634250889 11.307877090974795 17.15148302174852 0 0 0
1372 1 13.393602776039502 9.850950608210052 19.44776881365269 0 0 0
1373 1 15.168864019901717 9.732222345444583 17.14098713802549 0 0 0
1375 1 16.101619314008 11.547358498934987 19.337532874963912 0 0 0
1416 1 18.690818507038767 12.929573950118016 19.38667497570059 0 0 0
1376 1 18.588543919859266 9.817014651475809 19.410386982335773 0 0 0
1374 1 17.868416314855217 11.37964839644698 17.265572068124374 0 0 0
1417 1 20.37192873405433 12.949715767005515 17.059941019266773 0 0 0
1377 1 20.392119945162875 9.7660874271096 17.20385036894883 0 0 0
1379 1 21.17605528550111 11.544870534656411 19.2806037562731 0 0 0
1378 1 22.958049271874803 11.37268376580896 17.087204400331643 0 0 0
1420 1 23.85627590394105 12.948616481040098 19.299703481762847 0 0 0
1380 1 23.881324248224775 9.916901556344428 19.516134823285903 0 0 0
1421 1 25.43471178533905 12.759770968607231 17.15538824431946 0 0 0
1381 1 25.562936688923415 9.868033496712911 17.36629463449546 0 0 0
1383 1 26.498326026927643 11.419228023036663 19.386386190753093 0 0 0
1382 1 28.2240654490398 11.489411365809916 17.208893760579947 0 0 0
1384 1 28.863111041553914 9.871685054783761 19.500273649252858 0 0 0
1424 1 28.96936247618029 12.812622012551884 19.368129653888218 0 0 0
1385 1 30.67598533361442 9.750824942407888 17.380942725922985 0 0 0
1428 1 34.07968297949883 12.836165005604535 19.360961790964055 0 0 0
1388 1 34.1783341114067 9.796488831778879 19.588398072319134 0 0 0
1386 1 33.386012956883405 11.298449983596562 17.19060791402849 0 0 0
1425 1 30.856323308266887 12.871702084789078 17.172660463891628 0 0 0
1387 1 31.537875775737948 11.304675526538135 19.387423167347556 0 0 0
1429 1 35.984132949878145 12.854405356884875 17.314180480527234 0 0 0
1389 1 36.06721492502048 9.718719121236163 17.22631934348522 0 0 0
1391 1 36.81830546301241 11.330704864490174 19.352755018811123 0 0 0
1392 1 39.3498234584155 9.777927744542419 19.386419280732525 0 0 0
1432 1 39.47476532344679 12.777270020346684 19.288938502787307 0 0 0
1390 1 38.68807061453788 11.24052363134424 17.19142601535459 0 0 0
1393 1 41.215801442384546 9.843871546571805 17.261966981840658 0 0 0
1433 1 41.23540006696976 12.845095453409325 17.187612004557156 0 0 0
1395 1 42.03715361893005 11.279102068218553 19.403892111871492 0 0 0
1394 1 43.881979774804336 11.290992334067687 17.31980538467267 0 0 0
1396 1 44.65093030396518 9.705489112193115 19.549574428921847 0 0 0
1436 1 44.739533216850006 12.804394200335619 19.442846608532033 0 0 0
1397 1 46.28727415931648 9.575567975051984 17.443979097851205 0 0 0
1399 1 47.34240862886247 11.408078953886474 19.42063070727486 0 0 0
1437 1 46.5256219179891 12.75995197344265 17.197622101869317 0 0 0
1440 1 49.899181688027824 12.85560880951153 19.262987816505294 0 0 0
1398 1 49.00929788450961 11.151327015410125 17.19972468726193 0 0 0
1400 1 49.93548006343302 9.835433976175485 19.42322159133113 0 0 0
1441 1 -0.3716993621639297 15.76476368240246 17.06606370559237 0 0 0
1402 1 2.140043220503565 14.136087159688806 17.04658064116815 0 0 0
1404 1 0.45544015121099346 14.313300135991838 19.246592871057747 0 0 0
1804 1 3.0670913455807183 15.798379555438256 19.24502721632226 0 0 0
1767 1 5.55346670401482 14.375396661627153 19.24837707088516 0 0 0
1805 1 4.732022999710961 15.909811832949288 17.119501990280604 0 0 0
1408 1 7.282785298341171 14.428694779778244 17.166583582949237 0 0 0
1808 1 8.197181767889498 15.823380265426572 19.243997213452705 0 0 0
1411 1 9.927292760706885 15.994364619870488 17.13193165886863 0 0 0
1412 1 12.639032700554809 14.414860587493585 17.09579954318631 0 0 0
1809 1 10.94013464244034 14.383673920715747 19.355715590021987 0 0 0
1812 1 13.494993960679736 16.059262664716698 19.234749601650442 0 0 0
1813 1 16.113458362679452 14.63382838316388 19.351515814601402 0 0 0
1415 1 15.318803133744897 15.902486607080732 17.143035550125266 0 0 0
1770 1 13.449763747930499 13.012248982857539 19.27157037785745 0 0 0
1413 1 15.148119764107463 13.106039401984663 17.07806055349302 0 0 0
1414 1 17.7657245271111 14.462415397529615 17.191474684416757 0 0 0
1816 1 18.630572979891085 16.12235942850053 19.22887749459774 0 0 0
1419 1 20.291842809886543 16.014661216658805 17.022468215098492 0 0 0
1817 1 21.336916145125038 14.576344491562697 19.146753640254264 0 0 0
1418 1 22.897152599681224 14.46754825546584 17.058081262887193 0 0 0
1820 1 23.912431389411193 16.04188358592313 19.126949626586583 0 0 0
1821 1 26.44708967081018 14.459227112372304 19.343219405713807 0 0 0
1423 1 25.459607419058784 15.978754165662682 16.91177231547633 0 0 0
1422 1 28.205631486376234 14.3761411732252 17.082643744848045 0 0 0
1822 1 28.979069267779806 15.873753780356417 19.223718262801512 0 0 0
1465 1 30.845246710441263 15.927972777058027 17.132179404460544 0 0 0
1427 1 31.554493887531887 14.328916171327684 19.276888393140787 0 0 0
1426 1 33.49028387385785 14.328824660537467 17.154465362522384 0 0 0
1468 1 34.30127883814173 15.853568937522425 19.270403609791764 0 0 0
1431 1 36.811660387424084 14.332403631723828 19.327449992849115 0 0 0
1469 1 36.030098812433735 15.88960530261986 17.139465992590203 0 0 0
1430 1 38.59941245406533 14.372168683964876 17.177783760653462 0 0 0
1472 1 39.53541955156743 15.775315408995628 19.145574697672007 0 0 0
1473 1 41.31840759088543 15.865138048546665 17.05692878579297 0 0 0
1434 1 43.78075442872071 14.268794739370357 17.150912411174076 0 0 0
1435 1 42.00409897812739 14.33727838712447 19.37997234444793 0 0 0
1477 1 46.28089977870691 15.848189002257946 17.00643181879893 0 0 0
1834 1 44.65732557283036 15.958615570848519 19.366692158750215 0 0 0
1439 1 47.310554701489295 14.500260556941903 19.265577693934265 0 0 0
1403 1 49.92573008986113 15.946101016361908 19.179825569266836 -1 0 0
1438 1 49.02798074909553 14.247014384257636 17.19843685798615 0 0 0
1802 1 2.0849657840859694 17.3582968114711 17.010227522412812 0 0 0
1803 1 0.4039581555299703 17.248142273792848 19.164702221184996 0 0 0
1844 1 3.149463463743899 18.840080111639306 19.288199699747473 0 0 0
1845 1 4.843551368928757 18.861631504180696 17.115991199624027 0 0 0
1807 1 5.590047605934892 17.345587721514665 19.204594590561182 0 0 0
1806 1 7.34068627980495 17.470874542341388 17.106293339483457 0 0 0
1848 1 8.266632632011243 19.055152294455617 19.230891860874944 0 0 0
1849 1 9.946160093576605 18.889543887320173 17.093491249284178 0 0 0
1810 1 12.653069758209801 17.493083909588076 17.0286191648349 0 0 0
1811 1 11.010144502053558 17.52504168422291 19.318713699904844 0 0 0
1852 1 13.445852234558044 19.106413122874798 19.153741888463394 0 0 0
1853 1 15.264930162825127 19.08663331185025 17.027538542236268 0 0 0
1815 1 16.088215424849597 17.673282257086857 19.22836231013108 0 0 0
1856 1 18.64184001726669 19.205316411015986 19.035375630300724 0 0 0
1814 1 17.807704954024185 17.4319440984336 16.980876795758963 0 0 0
1857 1 20.329100446334024 19.112183824887268 16.874685957570403 0 0 0
1819 1 21.307107059127404 17.614152133918118 19.141538158445282 0 0 0
1818 1 23.021729014783507 17.41623789137742 16.95564464726886 0 0 0
1860 1 23.829078522846274 19.114450993166603 19.089591413512586 0 0 0
1861 1 25.535714768360478 18.911065965880095 17.02499071891421 0 0 0
1823 1 26.48830106821972 17.39382695243437 19.16084220733463 0 0 0
1864 1 29.119410598043544 19.08708938875917 19.17967662247279 0 0 0
1464 1 28.234832744078226 17.41861975434807 17.03745238423823 0 0 0
1865 1 30.805739562336726 18.907528274085045 17.03625581778399 0 0 0
1827 1 31.638523528930744 17.256688342740695 19.353876851699454 0 0 0
1466 1 33.357636748402825 17.476674481417877 17.130785509819205 0 0 0
1868 1 34.22280516972566 19.002715105118916 19.20519410391767 0 0 0
1471 1 35.90249314780961 18.886766055855436 17.07295837972191 0 0 0
1869 1 36.81617246896923 17.48221953921639 19.22336057722466 0 0 0
1872 1 39.41109020155329 18.87423509866215 19.262008756661313 0 0 0
1470 1 38.554228969070124 17.445010343669452 16.95815450308948 0 0 0
1475 1 41.21158080766831 19.01979563022932 17.0962390783453 0 0 0
1873 1 42.1319426908897 17.362637096906365 19.213269271667873 0 0 0
1474 1 43.766155577745764 17.400115051339238 16.987678470657354 0 0 0
1476 1 44.6348960872856 18.936939388862967 19.318478066223108 0 0 0
1839 1 47.32926645086131 17.354736127063163 19.290624724153048 0 0 0
1517 1 46.40099454035345 18.972187373036544 17.054159177414316 0 0 0
1443 1 51.54215821883939 18.887085231663505 17.000182048706783 -1 0 0
1480 1 48.997354080542976 17.33590535778114 16.986472816070606 0 0 0
1841 1 49.953990516437855 18.92933427032072 19.21048191830496 -1 0 0
1842 1 2.2517034257331536 20.353317034548862 17.046307207573285 0 0 0
1843 1 0.5393876691895618 20.290902649881517 19.31904986795621 0 0 0
1442 1 2.0323892616075563 23.27778591406771 17.107030643893054 0 0 0
1883 1 0.3062582434410006 23.216455114040688 19.236694194796172 0 0 0
1881 1 -0.4268823669108599 21.87412394986345 16.97200154656597 0 0 0
1884 1 3.08148289258127 21.91048541303758 19.177881210336196 0 0 0
1847 1 5.756805742734912 20.5851533400222 19.207817044676595 0 0 0
1885 1 4.802348584987892 21.945551028321916 17.060611642234676 0 0 0
1846 1 7.571784487820542 20.47080862734752 17.013349351480567 0 0 0
1888 1 8.243502513434542 22.147436489160487 19.169179523907946 0 0 0
1889 1 9.924824447662033 21.98636119464731 16.921575771268078 0 0 0
1886 1 7.315342174415095 23.451576920434544 16.918741801255084 0 0 0
1851 1 10.80980772123545 20.618854476497287 19.116682904724666 0 0 0
1850 1 12.569031132254503 20.49207525634946 16.98199193662372 0 0 0
1890 1 12.650376280148018 23.403085819987677 16.903474997299647 0 0 0
1892 1 13.641602900416443 22.210338470369088 18.983228859763383 0 0 0
1855 1 16.064121801561303 20.73865277986639 19.036701253280555 0 0 0
1893 1 15.249382937876971 22.202720886967647 16.67275486482553 0 0 0
1854 1 17.78749020948814 20.645512993462958 16.81172586609814 0 0 0
1896 1 18.654483944015524 22.236364444331237 18.88367342893011 0 0 0
1897 1 20.37280381855949 22.021748193907747 16.740384778551544 0 0 0
1859 1 21.13780853757768 20.745666626568326 18.904944290538623 0 0 0
1858 1 22.943264875838018 20.440108438785863 16.85486308683443 0 0 0
1898 1 22.9718005372728 23.38318302816454 16.60050586851469 0 0 0
1900 1 23.923812902910097 22.25747366786645 18.901700820872627 0 0 0
1863 1 26.4805187418447 20.594449583085865 19.069674495037727 0 0 0
1901 1 25.66381863654456 21.862548197075373 16.711934127765844 0 0 0
1862 1 28.327584155349545 20.30799049434677 16.872163292703394 0 0 0
1904 1 29.079971361010728 21.92185962138062 19.043807949683536 0 0 0
1902 1 28.42932842467729 23.226887221042954 16.811522623040137 0 0 0
1905 1 30.948096366006546 21.932764673853633 16.93826987374256 0 0 0
1867 1 31.715031363761927 20.536824870115826 19.173827865041527 0 0 0
1866 1 33.42290402157879 20.58967379121425 17.07775539217738 0 0 0
1906 1 33.52229849668241 23.436888408915973 16.88912917111273 0 0 0
1908 1 34.40733102167215 22.053708697854724 19.124211439907157 0 0 0
1871 1 36.80213627585336 20.468029543467143 19.249663963608842 0 0 0
1909 1 36.11903292724887 22.06895870282692 16.93939069994059 0 0 0
1870 1 38.4053814933781 20.438256116799653 17.03254746233443 0 0 0
1912 1 39.576937079588234 21.831352776066648 19.10855147581657 0 0 0
1910 1 38.733252702167235 23.203673257168674 16.966875108613312 0 0 0
1913 1 41.20435790601175 21.943046338414796 16.87578971028525 0 0 0
1875 1 42.00128043079921 20.43369138824087 19.147062249537687 0 0 0
1874 1 43.79484083696097 20.443574074271897 17.111193053952036 0 0 0
1914 1 44.01301143777087 23.393321727432244 17.123633393909028 0 0 0
1916 1 42.26560045846398 23.40584500648514 19.09708267502869 0 0 0
1876 1 44.72984660361563 21.798584147286544 19.32973093282133 0 0 0
1917 1 47.410667960203114 23.26955285397584 19.308418828260297 0 0 0
1519 1 46.419848181909146 21.746953670235083 17.01199410790133 0 0 0
1877 1 47.33463240873927 20.425867070806515 19.22913791780477 0 0 0
1880 1 49.96942545881356 21.846519316140515 19.259088640732184 0 0 0
1479 1 49.00238868829905 20.425370139920442 17.000070852854368 0 0 0
1878 1 48.993368150476556 23.270271381079798 17.236773857192613 0 0 0
2322 1 0.2941410765558138 26.279926996801745 19.395761604014613 0 0 0
1524 1 1.9085333594436182 26.158383131076633 17.113188750836546 0 0 0
1882 1 3.00446950399368 24.814068805853232 19.203262194676466 0 0 0
1887 1 5.667069957454945 23.56001060107265 19.228498143194194 0 0 0
1925 1 5.803563650885137 26.7992925501757 18.827134031408807 0 0 0
1484 1 4.630303735598864 24.977822251760138 17.088970904904784 0 0 0
1528 1 7.299427654045237 26.257195268468593 16.75738048424467 0 0 0
1928 1 8.36385878061671 25.187784267470295 18.957361315497852 0 0 0
1929 1 10.041168983210232 25.220538314410582 16.580111239843642 0 0 0
1930 1 12.575465964985245 25.9849795748199 16.529126151808313 0 0 0
1931 1 10.880645231335997 26.747464244083556 18.690852820511253 0 0 0
1891 1 10.893462630382276 23.60992648882928 19.075620396952353 0 0 0
1895 1 16.016168078797666 23.805609348271595 18.72944675270761 0 0 0
1932 1 13.588756321882139 25.27645621184503 18.837021061806162 0 0 0
1934 1 17.87616498085454 26.691942754987195 16.49788153666035 0 0 0
1936 1 18.70097499594776 25.294327328010027 18.64106128067407 0 0 0
1894 1 17.85964545125398 23.69841032547277 16.579452728884124 0 0 0
1939 1 21.477960184704873 26.851251722334943 18.423884205220503 0 0 0
1899 1 21.26454268541642 23.94191938215832 18.547195357226045 0 0 0
1940 1 24.03262787021044 25.351069056446097 18.296829306939195 0 0 0
1903 1 26.422216509767782 23.63549866684048 18.77377122958028 0 0 0
1941 1 26.598177207597644 25.308490678883118 16.526498138058237 0 0 0
1944 1 28.965743304445724 25.24441153139676 18.35082646371102 0 0 0
1907 1 31.574509920201866 23.5037734562971 19.013998307099268 0 0 0
1506 1 33.474381044949695 26.46034689391668 16.663441578008115 0 0 0
1945 1 31.187590036311217 25.06211056297608 16.737607722074678 0 0 0
1948 1 33.930325975426015 24.982154314201626 19.065683656272665 0 0 0
1911 1 36.963392120690514 23.86776063308098 19.099620707268116 0 0 0
1511 1 35.937929659830516 25.007164391644913 16.916264856921142 0 0 0
1952 1 38.52633384979532 25.98874312424005 17.08421039252811 0 0 0
1915 1 39.82260637888395 24.92237997781046 19.162106332992412 0 0 0
1919 1 42.39936428579068 26.518131647374567 18.997406844283 0 0 0
1953 1 41.27391020577778 24.94012319419761 16.82542218701018 0 0 0
1918 1 44.01382256097429 26.0358940590082 16.933287202045324 0 0 0
1120 1 46.382637505360705 24.69354970503244 17.071309021680197 0 0 0
1960 1 47.529196594994104 26.08830731681984 19.198474891133554 0 0 0
1879 1 44.90499105969583 24.869690114368783 19.371667267319985 0 0 0
1920 1 50.0014028757744 24.806360071405262 19.430567780860933 0 0 0
1481 1 49.117402488027054 26.14705261619063 17.018373161884234 -1 0 0
1483 1 51.50006686694125 24.73589679002823 17.100307669923918 -1 0 0
1523 1 1.7322083063700404 29.597290588072156 17.575538289700404 0 0 0
1921 1 -0.46738038723429765 27.57549012125837 17.154633865360964 0 0 0
1527 1 5.401105798787105 29.55061248879833 18.523243455056157 0 0 0
1922 1 3.049267087940041 27.868855363245018 19.026805301201524 0 0 0
1926 1 8.242881414118791 28.423603295482152 18.08794420138596 0 0 0
1969 1 10.653287478670094 29.917666125834764 18.254186663532828 0 0 0
1972 1 13.270815829056458 28.24109444337516 18.0734052275559 0 0 0
1975 1 15.346020627946483 30.247402653089452 18.455226482767998 0 0 0
1973 1 16.05455754931836 28.739883208979144 16.43182627194432 0 0 0
1935 1 16.152259212380553 27.00220691343124 18.626020254351992 0 0 0
1976 1 18.88499552368515 28.17343843894998 18.488862255229034 0 0 0
1979 1 21.253594995940535 29.748450670828326 18.194535887578088 0 0 0
1980 1 23.79947435779533 28.363602623100363 18.157544996456267 0 0 0
1983 1 25.9231409308717 30.001144384627544 17.772602742266205 0 0 0
1943 1 26.581774627108068 27.286529111756554 18.235710529250966 0 0 0
1984 1 28.95947276421816 28.51784061935706 17.992683112805512 0 0 0
1548 1 33.52852579350915 28.790691485025327 18.11379433583317 0 0 0
1547 1 31.024199220221174 30.187891317640656 18.067834424776134 0 0 0
1947 1 31.279661213209742 27.066819935689832 18.533994555915633 0 0 0
1949 1 35.923863956826565 27.07844267143749 18.353002075095848 0 0 0
1549 1 35.82158064543236 30.074950124003053 18.10509225637464 0 0 0
1510 1 38.23658943059371 29.031401831246612 16.911005772259745 0 0 0
1956 1 40.01460630395907 27.763392095172712 18.478533327751606 0 0 0
1553 1 40.82306666368646 30.192720724588924 17.555219589534598 0 0 0
1957 1 43.3201905377359 28.762631967335743 17.053789362895984 0 0 0
1556 1 42.994246443649615 29.44733607096417 19.417733579879318 0 0 0
1959 1 45.10454153783317 27.61971519392565 19.143797635771698 0 0 0
1557 1 45.771341867262336 30.18482270006558 17.694080686479047 0 0 0
1518 1 47.195414671618906 27.859877560097132 17.16012270045893 0 0 0
1997 1 48.157063138478094 30.23346444664555 18.738245678603384 0 0 0
1958 1 49.674410097940736 27.99400752033951 18.915183385365115 0 0 0
1961 1 50.92350984031643 30.422872615138644 17.9495109732943 -1 0 0
1563 1 0.8320804217386113 31.85022791527947 19.029943755390498 0 0 0
1564 1 3.3933576296734635 31.774166163043482 17.79504786045694 0 0 0
1565 1 5.263569454484223 33.47517508847497 17.74548976293913 0 0 0
1568 1 7.670193056501979 31.22036167831481 18.07911101044866 0 0 0
1569 1 10.09845368592535 32.88584669026134 17.9312540739608 0 0 0
1970 1 12.734350676622691 31.669973062397595 18.11946332909258 0 0 0
1613 1 15.030282334358526 33.24997728551362 18.091872464643057 0 -1 0
1576 1 18.400638420160295 30.924553619774343 17.53624276969845 0 0 0
1579 1 20.204751369807603 33.03517978716427 17.931540553716466 0 0 0
1620 1 23.129245753443886 31.729581277074125 18.22084276052643 0 -1 0
1581 1 25.41635480534198 33.152146546017015 17.889358715924416 0 0 0
1542 1 28.145493949573954 31.610057330139597 18.101528230462424 0 0 0
1585 1 30.57359373786997 33.096216700030645 17.953116099747152 0 0 0
1546 1 33.31401068277626 31.720396782878048 18.142863409444082 0 0 0
1589 1 35.86604296131135 33.18963500347896 17.822076539261975 0 0 0
1550 1 38.29211365495121 31.653376300556268 18.042577484873565 0 0 0
1593 1 40.92045668614067 33.1393506351127 17.820842809147642 0 0 0
1554 1 43.373266860276516 31.838975069995143 17.81553799299651 0 0 0
1559 1 46.12314077975279 32.99273308691179 17.67656558083624 0 0 0
1558 1 48.61747751230526 32.01549686618769 16.733996542849503 0 0 0
1998 1 49.89961089378831 32.70896046023175 19.77182297889277 0 0 0
1600 1 51.19773409939687 33.158297062320536 17.199466434639316 0 0 0
1604 1 1.8164000387820374 -4.226063717424877 22.316535779998045 0 0 0
1601 1 0.1985462102810428 -4.184093828541516 19.88439680978542 0 0 0
1203 1 0.3172009161397231 -1.0295874169449535 19.944523101431606 0 0 0
1567 1 5.511965367321641 -3.6778624249319747 20.132827796882122 0 1 0
1605 1 4.18400250090532 -2.7264447919785253 22.43421364168584 0 0 0
1607 1 6.580441913698231 -4.312288237401132 22.642744570675077 0 0 0
1611 1 9.034203757164132 -3.4990738159415775 22.69895235687232 0 0 0
1606 1 6.716173727618629 -1.534825500188553 22.458725528241104 0 0 0
1208 1 8.210875922921625 -2.3248925476175604 20.106561705047053 0 0 0
1571 1 10.483423506915143 -3.729619173176375 19.95457485904908 0 1 0
1609 1 11.640314157884326 -2.4727509874541904 22.046029847817167 0 0 0
2053 1 16.606619355526693 -2.563193547587848 22.720155814723128 0 0 0
1615 1 15.713458020965636 -3.7505817774205594 20.35769339028144 0 0 0
2010 1 13.7688211019692 -4.0227809374093715 22.444556775036887 0 0 0
1610 1 14.138309870431467 -1.3319826216124961 22.293479401740385 0 0 0
1215 1 16.180243361253737 -1.0634180049790878 19.979105936359655 0 0 0
1616 1 18.857189027012502 -4.44440802744456 22.102661107618403 0 0 0
1656 1 19.156489916245913 -1.5703011664400401 21.88563777887404 0 0 0
1617 1 21.029405014941908 -3.9025410151944233 20.265602582301387 0 0 0
1220 1 23.66068051597114 -2.3725007899365553 20.232804654760933 0 0 0
1619 1 21.853930706449955 -3.2019973562830537 22.54941833864705 0 0 0
1583 1 26.311300977599913 -3.9397031922542283 20.140702969506926 0 1 0
1621 1 25.329410523228482 -2.6277727399431727 22.42270633286208 0 0 0
1224 1 28.856815275284525 -2.5233864859979116 20.111635484884726 0 0 0
1982 1 28.066546539790853 -3.864784010147555 22.624546479493777 0 1 0
1625 1 30.709980944718627 -2.4241805051206624 22.336587398333112 0 0 0
1622 1 28.152575645059045 -1.0142011683297136 22.395294411543773 0 0 0
1587 1 31.420249509403153 -3.85279076562329 20.163705817568847 0 1 0
1986 1 33.288587491615104 -3.7968963909474582 22.63421193181093 0 1 0
1228 1 34.251817325713986 -2.3952391211642636 20.067453266717905 0 0 0
1591 1 36.57209766610919 -3.9261367212511873 20.12992750618215 0 1 0
1629 1 35.86055333385225 -2.532978847833496 22.39428938083209 0 0 0
1232 1 39.35647468075075 -2.3397423072232377 19.96797042567272 0 0 0
1990 1 38.49274638726041 -3.9165511190279862 22.283656915858867 0 1 0
1595 1 42.08215741088132 -4.244684230932082 20.078285831287353 0 1 0
1236 1 44.5203149937788 -2.518440966233676 20.054167586430985 0 0 0
1633 1 41.16801813362923 -2.5198630317983612 22.019507020294657 0 0 0
1994 1 43.807778823544055 -4.370005700492259 22.396934780504296 0 1 0
1599 1 47.28389974630403 -4.196570313447042 20.168774915918906 0 1 0
1637 1 46.37705410856725 -2.487420919118071 22.219593845792733 0 0 0
1638 1 49.953990452668194 -2.6867691129374567 19.95539226924996 0 0 0
1603 1 51.529441078341264 -2.3772100195156325 22.177963875530537 -1 0 0
1640 1 49.41966263156097 -4.324446497096559 22.104736682202727 0 0 0
1680 1 48.874623228205195 -1.1069386293346812 22.278211115254077 0 0 0
1602 1 1.9270005917722006 -0.9837946439324021 22.31008806615627 0 0 0
1642 1 1.9101359200915824 2.014925958473122 22.134045300177785 0 0 0
1244 1 2.851524410689228 0.504758496028419 20.034473005444156 0 0 0
1645 1 4.5002960530903255 0.5208781599872205 22.1309396149242 0 0 0
1207 1 5.447427988021505 -0.88115564222467 20.00355071655825 0 0 0
1649 1 9.123808508957369 -0.49941487789189054 22.265849322838747 0 0 0
1646 1 7.274869516721807 2.0932423414608685 22.07358865952255 0 0 0
1652 1 11.673223762103301 0.0777930226005763 22.587833787792437 0 0 0
1211 1 10.768310044592175 -0.6861627347130854 19.964911314756687 0 0 0
1252 1 13.585853584430636 0.764851738043129 20.239193812847628 0 0 0
1653 1 16.46551093746913 0.43080486996784284 22.074308919969685 0 0 0
1654 1 18.1974399777477 2.4167824858902627 21.741071067673975 0 0 0
1219 1 21.247111339752838 -0.9768013360688395 19.97483672647857 0 0 0
1618 1 23.126629132214767 -0.7846417312018601 22.302207294891538 0 0 0
1657 1 20.563221972897686 0.771031639895079 22.143702139883075 0 0 0
1658 1 23.080025069770354 2.071906331323608 22.100297194367467 0 0 0
1259 1 21.124238228274002 2.101596160903261 19.898159201302402 0 0 0
1223 1 26.35148287412303 -0.8966494974290944 20.202451763555324 0 0 0
1661 1 25.679007608368536 0.5076792971649118 22.330304333985016 0 0 0
1260 1 23.85840478130954 0.59998102408428 19.936942323470866 0 0 0
1263 1 26.3657825324666 2.081178686451299 19.917584226030964 0 0 0
1662 1 28.09527495435372 2.090133115154668 22.225775363041766 0 0 0
1264 1 28.955650286387527 0.6627244333829525 19.948439111270872 0 0 0
1665 1 30.766192010509098 0.7880582435241585 22.175195461858756 0 0 0
1626 1 33.45054136242011 -0.9740597623128817 22.402664334333878 0 0 0
1666 1 33.35694885996409 2.0587798004605897 22.080268000299913 0 0 0
1227 1 31.51214935021157 -0.8996456105807322 20.020406983612105 0 0 0
1669 1 35.87300405184614 0.4306601857519441 22.227012054509242 0 0 0
1231 1 36.745080356352716 -0.8508737231145203 19.946605528899614 0 0 0
1272 1 39.42566000875884 0.6204368537924996 19.949816606765562 0 0 0
1670 1 38.54836382518421 2.0583792764903617 22.04839361499931 0 0 0
1630 1 38.52470925955565 -0.9373985546072636 22.155319899065496 0 0 0
1673 1 41.10236517293208 0.5538524157983353 22.12253202632548 0 0 0
1674 1 43.71275906109399 1.9820999693568533 21.936273641506013 0 0 0
1634 1 43.739564422143744 -0.9731858164183351 22.0796433744402 0 0 0
1677 1 46.42070650588116 0.38312223937617684 22.07251351213966 0 0 0
1678 1 48.944030246725276 2.1824552405300794 22.13483966326933 0 0 0
1641 1 51.37448567510933 0.5534611281330744 22.173610638849222 -1 0 0
1682 1 2.006786463516487 5.035078649820628 21.930360944421725 0 0 0
1685 1 4.640646968300018 3.671562031216876 21.94088552545906 0 0 0
1686 1 7.4379018220840605 5.298990309906435 21.7669936339612 0 0 0
1689 1 9.916650585732953 3.859250281141719 21.954854464822144 0 0 0
1690 1 12.54454367893232 5.346524643359306 21.891395010577988 0 0 0
1650 1 12.221754402088452 2.5741159368604096 22.302279296437238 0 0 0
1693 1 15.353465436615204 3.9532240152520757 21.66820378160432 0 0 0
1694 1 17.850084828110266 5.593467571720764 21.720125298518855 0 0 0
1697 1 20.72107556220895 3.6766744056398633 22.04793924026483 0 0 0
1698 1 23.053651804559546 5.2765924133667905 21.83870453192737 0 0 0
1701 1 25.515092857715857 3.653497642956758 22.048915373082018 0 0 0
1702 1 28.12859615140806 5.118627291497628 22.04688458093106 0 0 0
1705 1 30.805348815605463 3.8194355435057386 22.094503503002972 0 0 0
1706 1 33.31416606115073 5.249723060912839 21.95782980261345 0 0 0
1709 1 35.83549049164654 3.662264895559204 22.067903397683853 0 0 0
1710 1 38.604744432260404 5.001841834980677 21.873113856084725 0 0 0
1713 1 41.143445815386784 3.622227110509158 21.979986335432862 0 0 0
1714 1 43.71669048442388 5.196737089852947 21.838826711028826 0 0 0
1717 1 46.328516009579275 3.47074869992767 21.901501139642924 0 0 0
1681 1 51.42484377202331 3.5416200740173984 21.916462128555064 -1 0 0
1718 1 48.830253051127585 5.085717900033071 21.910396287214045 0 0 0
1722 1 2.0077402938660134 8.115608690055105 21.760198968334382 0 0 0
1725 1 4.599781354100383 6.679644095239379 21.77453531901275 0 0 0
1726 1 7.4546680109579775 8.24358892388599 21.61511788409435 0 0 0
1729 1 10.065549605958195 6.898886696563611 21.68596078080213 0 0 0
1730 1 12.733609915610941 8.480529316207411 21.650897724364455 0 0 0
1733 1 15.321607805271109 6.929210488631957 21.562146431512282 0 0 0
1734 1 17.894782186577803 8.449126659625527 21.638454598023635 0 0 0
1737 1 20.456699480815303 6.839160037160113 21.693863672578406 0 0 0
1738 1 22.965360217298244 8.511862328949261 21.769662924227674 0 0 0
1741 1 25.678243243092705 6.718259183702687 21.903034645701474 0 0 0
1742 1 28.2608130490888 8.42658821822386 21.73120752197534 0 0 0
1745 1 30.708480263321363 6.794974206009666 21.785728869440224 0 0 0
1746 1 33.34972527228683 8.271763562802853 21.811093262921062 0 0 0
1749 1 36.00966745326137 6.735015259212702 21.80277838902806 0 0 0
1750 1 38.59934198171412 8.154789762959034 21.6534755372429 0 0 0
1753 1 41.14437590679252 6.593721024649881 21.72534216815185 0 0 0
1754 1 43.65670103990412 8.18756135472772 21.623966030577943 0 0 0
1757 1 46.36280913032249 6.62972119477112 21.861507908268596 0 0 0
1721 1 51.44771939647022 6.7919211941805475 21.840486367588678 -1 0 0
1758 1 49.07877892855237 8.210787239044764 21.686290402425687 0 0 0
1761 1 -0.31156371435929486 9.812759663389082 21.644351783828302 0 0 0
1801 1 -0.38205673000523177 12.940349204318089 21.517205768217416 0 0 0
1762 1 2.1719214044677915 11.384966462808544 21.511380001457898 0 0 0
1727 1 4.753185401819579 9.913420623855826 21.673433847728713 0 0 0
2165 1 4.738084779896996 12.88960385120745 21.51612919466654 0 0 0
1768 1 7.33517696688491 11.37882377317744 21.56345736279366 0 0 0
1771 1 9.91234973777907 12.868481912704848 21.52195477845121 0 0 0
1731 1 10.058462787969159 10.002641947994373 21.543477055651536 0 0 0
1769 1 12.607404330392457 11.479508719266072 21.408383892965134 0 0 0
1773 1 15.181933252569412 9.973363512570247 21.467744795306192 0 0 0
1774 1 17.820362482792248 11.525464367426942 21.480016232829012 0 0 0
1779 1 20.375231442333973 12.993190711546003 21.42435554359539 0 0 0
1778 1 22.983015209737918 11.548961163350384 21.465108010783666 0 0 0
1777 1 20.45260919779927 9.896467987610878 21.615914839778668 0 0 0
1783 1 25.67408704510187 12.994618262289002 21.527671990766876 0 0 0
1781 1 25.65565537377206 9.938632366532605 21.627996731308958 0 0 0
1782 1 28.093479342114673 11.399099252975656 21.7530898217091 0 0 0
1785 1 30.685412491012972 9.892419475118107 21.602526037035506 0 0 0
1825 1 30.74739975315491 12.96346008317138 21.64020066850517 0 0 0
1786 1 33.218403563105966 11.366915099551221 21.554676061684287 0 0 0
1789 1 35.979679847121986 9.81475613365283 21.76877503936721 0 0 0
1829 1 35.995316251272854 12.971415927733684 21.652158492462007 0 0 0
1793 1 41.10321776546553 9.870427745920736 21.604924782134784 0 0 0
1790 1 38.57832434829028 11.188925632101101 21.65182996306803 0 0 0
1833 1 41.27833703948566 12.795217187952684 21.51502824017164 0 0 0
1794 1 43.69864604367554 11.347524302442958 21.60028728573116 0 0 0
1797 1 46.40908502701848 9.88880824194249 21.673816708530897 0 0 0
1798 1 49.11830600412013 11.369037664711135 21.597923599868572 0 0 0
2162 1 2.1652584229222964 14.437839304331362 21.468340790990553 0 0 0
2205 1 4.7644528163683795 16.0673428269553 21.438577616806494 0 0 0
2166 1 7.28999902138947 14.393348129092416 21.496234302652844 0 0 0
2209 1 10.05576201952434 15.974214414405367 21.303470739537822 0 0 0
2170 1 12.623613846980083 14.466612744701631 21.490231249638754 0 0 0
2213 1 15.304818659736217 16.24495418663121 21.461387251500696 0 0 0
1772 1 15.218588643482782 13.059393488588466 21.440399907615028 0 0 0
1775 1 18.02987496628431 14.621478619973427 21.471240531000312 0 0 0
2217 1 20.43699342849586 16.110391004933348 21.34179345731448 0 0 0
2178 1 22.94998912120032 14.516282323358979 21.30370768328738 0 0 0
2221 1 25.49636778430168 16.025536944687275 21.312684807124093 0 0 0
1824 1 28.1721410412272 14.422712237922287 21.495132738197558 0 0 0
2225 1 30.74697654531933 15.883319982960845 21.505294366604556 0 0 0
1826 1 33.30970262897951 14.53167370799023 21.591965536477623 0 0 0
1831 1 36.017677270869584 15.892369897634996 21.454661793563435 0 0 0
1830 1 38.6099793776648 14.367645572401017 21.454032854272054 0 0 0
1835 1 41.32730984535013 15.868178212555012 21.457084486733876 0 0 0
1795 1 43.80132008969082 14.417057994399443 21.500872953677714 0 0 0
1837 1 46.438712312010054 13.000557053006315 21.626350993220633 0 0 0
1836 1 46.32691192562221 15.760130743281138 21.559668814968333 0 0 0
2201 1 51.563275101521114 16.009387637393605 21.525112142572862 -1 0 0
1838 1 49.116106970430806 14.409570415361806 21.426451109565612 0 0 0
2202 1 2.02371817121776 17.354760769363796 21.39703669389145 0 0 0
2241 1 -0.39019905853376713 18.98948538600557 21.55957898448813 0 0 0
2245 1 4.805434084422168 18.985250084405138 21.422703965079915 0 0 0
2206 1 7.392519506579519 17.461889808089218 21.39686738836273 0 0 0
2249 1 10.015078691615985 19.21601144225134 21.39168939806616 0 0 0
2210 1 12.657556341284723 17.746337227848013 21.5088951259653 0 0 0
2253 1 15.08830791935215 19.269452359615894 21.324764203414205 0 0 0
2214 1 17.764951970241576 17.79245291016041 21.36183016967454 0 0 0
2257 1 20.463979815415097 19.259287108730813 21.22706320627775 0 0 0
2218 1 22.98267327967987 17.74210212646058 21.36847878219421 0 0 0
2261 1 25.5146732749499 19.098367310436743 21.295721289262353 0 0 0
2222 1 28.162174210294516 17.564224142446783 21.438895466619883 0 0 0
2265 1 30.720721374847038 19.064778559642708 21.29102298517585 0 0 0
2226 1 33.39968819659427 17.5026014317014 21.500667421325502 0 0 0
2269 1 35.99184592612659 19.041195931989773 21.342628536897365 0 0 0
2230 1 38.665216141459595 17.31050518217412 21.337133784174966 0 0 0
2273 1 41.19576069650705 18.767680110691437 21.422972883263874 0 0 0
2234 1 43.81572680821918 17.47683783139523 21.562131845332058 0 0 0
2277 1 46.3943686741501 18.898407455675766 21.40090858083639 0 0 0
2238 1 48.94047569540629 17.495472191040125 21.496801987896415 0 0 0
2281 1 -0.4033492220130057 21.905276104694902 21.54712883005897 0 0 0
2282 1 2.280737063633164 23.476877491849844 21.39415630869502 0 0 0
2242 1 2.283774763738682 20.410292734064132 21.467628343834352 0 0 0
2285 1 4.904018425829771 22.132737052777237 21.46106993370059 0 0 0
2246 1 7.493261484004202 20.559034884082028 21.41780139761114 0 0 0
2289 1 9.998846642215856 22.251125159300216 21.3460962757501 0 0 0
2250 1 12.552178201055453 20.695783325581097 21.247370583669053 0 0 0
2293 1 15.286646471733137 22.419668349421933 21.148707595422355 0 0 0
2292 1 13.47953195841115 22.400622826183934 23.33088122312019 0 0 0
2254 1 17.798111380048752 20.76982841731554 21.276340918791803 0 0 0
2296 1 18.625459761307926 22.263495368603845 23.293177837448283 0 0 0
2300 1 23.80248905578952 22.393778897935412 23.191250219048182 0 0 0
2259 1 21.296804311292266 20.87434292727568 23.394888666681457 0 0 0
2297 1 20.350255472437805 22.229749214970465 21.00489570927016 0 0 0
2258 1 23.003781941371226 20.81390163759957 21.09729331763288 0 0 0
2301 1 25.55205267801434 22.184906797621856 21.07495983710488 0 0 0
2263 1 26.321306972605353 20.769635559665186 23.267012230593398 0 0 0
2262 1 28.13030142085655 20.610296551810038 21.34351695228362 0 0 0
2304 1 28.98564764203709 22.354421914347007 23.272428613246234 0 0 0
2305 1 30.773800926105697 22.014494834618706 21.279619454903447 0 0 0
2266 1 33.30903247737331 20.699475031546697 21.298670013841893 0 0 0
2309 1 35.99793868115995 22.22322345891224 21.217108177293035 0 0 0
2271 1 36.896414804947156 20.69557413979197 23.39532851939622 0 0 0
2270 1 38.72250671074974 20.493226510155043 21.359930173257066 0 0 0
2313 1 41.09475189160861 21.90412459308568 21.40430586915962 0 0 0
2274 1 43.798780585901866 20.422881504725567 21.39728090083349 0 0 0
2317 1 46.3917537419959 21.936324227167002 21.449364633723185 0 0 0
2278 1 49.07499003744314 20.35142105896463 21.314649268557478 0 0 0
2318 1 48.95848138138902 23.162469085646492 21.463525643660258 0 0 0
1924 1 2.2277656686976743 26.501178293748847 21.14661786505638 0 0 0
2321 1 -0.4295186125804571 24.732141985303127 21.55188948049952 0 0 0
2324 1 2.9741818142251306 25.122794460085565 23.34812460613938 0 0 0
2323 1 0.47063355940112095 26.612337773678245 23.28699827553913 0 0 0
2325 1 5.031615480755266 25.16609214258522 21.27604201424 0 0 0
2326 1 7.568234658246498 26.931312667983818 20.962474795119814 0 0 0
2286 1 7.403769533954385 23.833506582953397 21.26997224321649 0 0 0
2290 1 12.738719196123293 23.7454144931742 21.145865655033745 0 0 0
2329 1 10.097622788501958 25.398109762992597 21.044486065569085 0 0 0
2331 1 10.92477803244987 26.895025723597346 23.213069850131106 0 0 0
2330 1 12.561412512220649 26.931538931185404 20.947031827553836 0 0 0
2291 1 10.923609019827731 23.91854973357493 23.308880565081438 0 0 0
2332 1 13.494874480610479 25.39241197008999 23.219791545219227 0 0 0
2333 1 15.195599425755674 25.39526331832838 20.9620927704038 0 0 0
2295 1 16.009520018578552 23.892765389846705 23.30397932845006 0 0 0
2335 1 16.176115120145166 26.94277911438772 23.089888008135976 0 0 0
2294 1 17.799421940057304 23.864055561162175 20.954127155823656 0 0 0
2336 1 18.617506373145478 25.331959541211894 23.11411125884204 0 0 0
2334 1 17.777940086437095 26.809128812434068 20.909422466528678 0 0 0
2337 1 20.475849084334687 25.357359714552896 20.792558274268647 0 0 0
2298 1 22.935172706172107 23.843825734095933 20.83123611362527 0 0 0
2299 1 21.18505812277929 23.754033475370132 23.11912484879831 0 0 0
2339 1 21.260961896886208 26.792465156524415 22.99386119555393 0 0 0
2338 1 23.14204216427481 26.827219712456184 20.675097275300832 0 0 0
2303 1 26.484074057751453 23.834926074586647 23.070399080130404 0 0 0
2341 1 25.62474185870851 25.355680935153877 20.743611130051455 0 0 0
2340 1 24.017062247025205 25.281195816802615 23.03022887256317 0 0 0
2342 1 28.304205915413146 26.86985288919645 20.5482890977105 0 0 0
2302 1 28.3150588177982 23.791937988971046 20.829518914030793 0 0 0
2344 1 29.076881995768147 25.467541500045805 22.857430621030066 0 0 0
2345 1 30.809893694122916 25.522808036243863 20.74539734114792 0 0 0
2306 1 33.28833883143831 23.74448719924398 21.195232107665248 0 0 0
2347 1 31.67087636946221 26.933173789746075 22.92673647097855 0 0 0
2307 1 31.619947184673894 23.798316218512205 23.325345809109113 0 0 0
2348 1 34.15847023395574 25.40390452873944 23.16842881156409 0 0 0
2349 1 35.857808528326274 25.502302585563946 20.93101551119308 0 0 0
2351 1 36.689008456124796 26.907158641462544 23.08740419505618 0 0 0
2311 1 36.8337823822646 23.74706751781993 23.313744998595258 0 0 0
2310 1 38.65092644944153 23.58400425555558 21.179150246140793 0 0 0
2350 1 38.34826477313267 26.752091079557918 20.41283211710062 0 0 0
2352 1 39.378020952488 25.32080507175041 23.219776752492688 0 0 0
2314 1 43.81883807621399 23.53047905834032 21.41475183384774 0 0 0
2353 1 41.35499402933884 25.12711819504304 21.280452424802853 0 0 0
2354 1 43.69506862259033 26.650036099981023 21.28554622900245 0 0 0
2355 1 41.78786162983903 26.880631903601707 23.217899583434313 0 0 0
2357 1 46.73293889651406 24.918171389180007 21.40347773299182 0 0 0
2356 1 44.837202586773316 25.2426144923865 23.338594681645315 0 0 0
2359 1 47.142739592590885 26.786828293406597 23.23256699372586 0 0 0
1923 1 0.6790367038821548 29.17218198691851 20.10192258628799 0 0 0
2363 1 0.11713981344873814 29.39673965993086 23.0372454490237 0 0 0
2364 1 2.9282762405304084 28.375831276188407 22.875720277945415 0 0 0
2327 1 5.805393777475968 27.072666464974567 23.327359047647274 0 0 0
1927 1 4.941888387567029 28.369400341250284 20.909275856760534 0 0 0
2365 1 5.542399023126391 30.138217445096856 22.80992878108522 0 0 0
1964 1 3.26765191282251 30.489923044447004 20.337516992928887 0 0 0
2368 1 8.4241908107228 28.6712540019142 23.029080878544274 0 0 0
1968 1 7.802594078800375 29.94299436826072 20.54974294582679 0 0 0
2369 1 10.078430864386899 28.479947561164117 20.711261311320744 0 0 0
2370 1 12.563180294044233 30.027216350243087 20.28757119213645 0 0 0
2371 1 11.158590615596896 30.12898709639196 22.899889055170615 0 0 0
2373 1 14.960395890489597 28.48307912396129 20.55777549813998 0 0 0
2372 1 13.512599073084914 28.465226779015588 23.02622370477375 0 0 0
2375 1 16.00646774924434 29.84720678044816 22.755220031101203 0 0 0
2374 1 17.458863709825344 29.651406428450322 20.416107113309533 0 0 0
2376 1 18.720511725873376 28.36391027167572 22.910809135151208 0 0 0
2377 1 20.410842971706657 28.31993420030218 20.7397424619503 0 0 0
2379 1 21.42458986477904 29.8086660635713 22.7707319318062 0 0 0
2378 1 23.024973237811757 30.04356477280175 20.523551599680392 0 0 0
2380 1 23.930154730432072 28.28992098013927 22.697211922082076 0 0 0
2343 1 26.497343388952746 27.016135414261253 22.833412464053225 0 0 0
2381 1 25.640986019800355 28.415674918931728 20.45372873745953 0 0 0
2383 1 26.649294476596886 29.878034583998605 22.782732398055 0 0 0
2384 1 29.153687271303962 28.495518690308856 22.773761561641155 0 0 0
2382 1 28.05898604637518 29.77498682882465 20.279426218392107 0 0 0
2346 1 33.36663724160623 27.110870590570585 20.71061664377563 0 0 0
2385 1 30.812431100731438 28.769031620359414 20.509422300457835 0 0 0
2387 1 31.70777094150092 29.84599380776318 22.827908125178404 0 0 0
1946 1 33.79657835641186 30.139398837916552 20.695929082906762 0 0 0
2388 1 34.19580392581281 28.475464205319845 22.971680597599235 0 0 0
2389 1 36.42421828090997 30.17904672185915 22.74759522815699 0 0 0
1951 1 36.05035785287055 28.449935824606882 20.77138851236349 0 0 0
1552 1 38.50478505588504 29.77701688575914 20.08158062129114 0 0 0
2392 1 38.96677942947976 28.24667587319071 22.650017211729512 0 0 0
2393 1 40.73665380439553 30.22991933499103 23.287113653612113 0 0 0
1955 1 40.978609009542666 28.357617566340828 21.078514554658085 0 0 0
2396 1 44.62343180626401 28.379486528684083 23.091907041149383 0 0 0
2397 1 45.235626461384214 29.766584007923058 20.784274921181634 0 0 0
2358 1 47.54385219493601 28.25552002201868 20.90563275258942 0 0 0
2399 1 47.20542976971153 29.63175874389318 23.000601416077128 0 0 0
2361 1 50.99620724719752 27.2907218806125 21.229184180766357 -1 0 0
2000 1 49.907699227814476 29.933383266792113 20.84169588448893 0 0 0
2400 1 49.61935397133972 28.23289236472604 23.230605412057805 0 0 0
1963 1 -0.14296567841596808 32.00862746779685 21.443718076069818 0 0 0
2362 1 2.213450461567736 31.237282945817135 22.942328696466404 0 0 0
1965 1 5.648992494772998 31.823070466061075 20.36114931177211 0 0 0
1967 1 4.282189591105616 32.891720713951635 22.71147196923429 0 0 0
1962 1 3.1087513499930908 33.32712230547591 20.171368413348933 0 0 0
1608 1 8.519345111154898 31.5900327932791 22.718010780925656 0 -1 0
1966 1 8.08352091929687 33.10466458970808 20.355558565419802 0 0 0
1971 1 10.138539539045748 31.426267306128487 20.346078910465792 0 0 0
2009 1 11.042061496290772 33.19222073146914 22.472923332992238 0 -1 0
1612 1 12.64900821499287 33.238186365915396 20.28883220405861 0 -1 0
2012 1 13.624590789417207 31.399706079909166 22.900801716295774 0 -1 0
2015 1 16.271778827650405 33.00016400503954 22.705436746202288 0 -1 0
2013 1 15.067460771856503 31.736546644405095 20.541703617493063 0 -1 0
2016 1 18.714367746632885 31.21377785684181 22.699423978197412 0 -1 0
2017 1 20.072687045879473 31.14487787923921 20.39081893561925 0 -1 0
1974 1 17.57424289368011 32.45641658413965 19.948824069754927 0 0 0
2019 1 21.46448557959886 32.603671314633175 22.556060310083442 0 -1 0
2018 1 23.70516891362433 33.46889063753032 20.735762818382018 0 -1 0
2020 1 23.940755408661435 31.25757741018414 22.74631447439322 0 -1 0
2021 1 25.8414778221521 31.44653482270229 20.167312772139713 0 -1 0
2023 1 26.251852381206213 32.75433342546777 22.56476404779914 0 -1 0
1584 1 28.692244238846907 33.051731860739444 20.358784515454158 0 0 0
2024 1 29.185428021200327 31.270787733640226 22.447288711917075 0 -1 0
1987 1 30.803415878588574 33.25138032708945 22.688782935039924 0 0 0
1985 1 31.311621029747972 31.673657584637738 20.483060079107062 0 0 0
1588 1 34.013562037034276 33.00062901078296 20.42514792201727 0 0 0
1988 1 33.4572208534707 31.791071339802386 23.092672080022883 0 0 0
1989 1 35.956751419426936 33.07713773543347 22.693511017864928 0 0 0
1551 1 36.46549554095124 31.744881568987495 20.21407817534734 0 0 0
1993 1 40.99483655112029 33.14236355154942 22.67973793656452 0 0 0
1950 1 38.7717654824134 31.633537518666174 22.050231809845137 0 0 0
1592 1 39.19950191101488 33.430917869613666 19.918137960408842 0 0 0
1555 1 40.8990850864859 31.43913598716781 20.124882515468794 0 0 0
1954 1 42.841461703899384 30.778636453209515 21.865018019447998 0 0 0
1596 1 44.797621226910465 32.63065158736559 20.25871961474551 0 0 0
1996 1 45.02851076361702 31.506591475952682 23.065793917104173 0 0 0
1999 1 47.43183659686889 31.606969470504865 21.004348876004713 0 0 0
2037 1 46.62898018686742 33.536534015061285 22.841930807240395 0 -1 0
2398 1 49.63177947541294 31.350143122457823 23.06319184773681 0 0 0
2003 1 -0.02549435205996603 -3.8382518484799233 26.108085024445753 0 0 0
2002 1 2.158764570977949 -2.701569028180784 24.644610307920615 0 0 0
2044 1 3.5927169297173736 -1.3173464391750445 26.700380083498807 0 0 0
2005 1 5.146781321224955 -1.2305038806304767 24.52793115015212 0 0 0
2007 1 4.656362514616433 -4.064810850805725 25.146626201852957 0 0 0
2048 1 7.483383596279511 -2.9289223514457374 25.094809030710206 0 0 0
2049 1 9.899662581992578 -1.2849093725797829 24.902564856250432 0 0 0
2011 1 12.076342263262006 -3.050797411496888 24.695710664139295 0 0 0
2052 1 14.360627732380134 -1.2500501217586524 25.08063872019523 0 0 0
2410 1 15.015668979648607 -4.277141286864664 25.033204635524918 0 0 0
2453 1 16.97816201811286 -2.5094216884033713 25.744086481944716 0 0 0
2014 1 18.904833006441866 -2.8522805417439594 24.285491359021332 0 0 0
2457 1 20.865127839731752 -4.355247858011277 24.912675119681847 0 0 0
2060 1 23.56927364234218 -2.5558577952636448 24.61387208852754 0 0 0
2057 1 21.137443067672027 -1.1079350995821273 24.088488855739715 0 0 0
2461 1 25.957014654328752 -4.014214754513184 24.945597374811797 0 0 0
1623 1 26.434215421811043 -1.110421775730396 24.717799349445027 0 0 0
1624 1 29.09890791851556 -2.566890594926954 24.77408780923796 0 0 0
2022 1 28.41873465874094 -1.0191475042243785 26.724916523537207 0 0 0
2025 1 31.49065708700145 -3.911957464470558 25.163083328674343 0 0 0
1628 1 34.20512343125469 -2.3503149708578355 25.072446103655686 0 0 0
1991 1 36.6849242832222 -3.9428059175444017 24.96443225211932 0 1 0
1632 1 39.4625459033724 -2.577569274764255 24.58564104288523 0 0 0
2030 1 38.318927012248665 -1.2218581656797518 26.752012408054107 0 0 0
2034 1 43.54425179433504 -1.095467376910253 26.31301813952319 0 0 0
1995 1 42.268537149009944 -3.62765820870482 25.086273500007024 0 1 0
1636 1 44.67354303481656 -2.602092468808763 24.376846915430715 0 0 0
1639 1 47.15840509693636 -1.1644923402398004 24.390774581780594 0 0 0
2039 1 46.833457462012476 -3.760055508278265 25.344937054121328 0 0 0
2038 1 49.667555391815526 -2.6060124120979076 24.680585702534383 0 0 0
2080 1 50.44674238883408 -1.4386442450109755 26.811876533002174 0 0 0
2041 1 0.021875504474550944 -0.7145888651797239 24.523070528993372 0 0 0
1643 1 0.16579379417620776 2.1360540923788784 24.19459444602722 0 0 0
1644 1 2.6814729401854915 0.5144643754366243 24.599012785750958 0 0 0
1647 1 5.522371353634292 2.293244014661746 24.045603785522495 0 0 0
2045 1 4.897416230517688 1.15386845797073 26.168444284340797 0 0 0
1648 1 7.45016941892038 0.37569930387874795 24.499864079563263 0 0 0
2046 1 7.393209906049048 2.232008653856939 26.41616586083775 0 0 0
1651 1 9.830767256000073 1.6455904085047202 23.89756994620043 0 0 0
2451 1 9.665470321018905 0.7885315565799242 26.819958242067678 0 0 0
2050 1 12.14926590053006 0.6429180762172582 25.22206032412701 0 0 0
2454 1 16.474622602034557 0.5449862922267341 25.767754935241403 0 0 0
2055 1 14.246342137256612 1.2486078326724561 23.413205684087462 0 0 0
2493 1 14.195416788618411 2.2791658585850874 25.91618290647059 0 0 0
2056 1 19.275377684299375 -0.6607689224608935 26.285117984848302 0 0 0
2097 1 18.423171149661293 2.4810699751769603 26.052680314152663 0 0 0
2054 1 18.519699969912896 0.4426692852335137 23.918973035566353 0 0 0
1659 1 21.23455972808008 1.8693458665153395 24.792352634363603 0 0 0
1660 1 23.849618164899358 0.5119092851515941 24.78727511313135 0 0 0
1663 1 26.332060111149517 2.0591704431202515 24.39615562044462 0 0 0
2062 1 28.19083094178453 2.215617649918004 26.450441931558306 0 0 0
1664 1 29.07897590318559 0.6642829474235343 24.546926690989856 0 0 0
1627 1 31.618196288551697 -0.9505414172604034 24.60795220222283 0 0 0
2065 1 30.815923500712387 0.7215855229110515 26.838919041729984 0 0 0
1667 1 31.585549584171456 2.2297882699092364 24.34379370543838 0 0 0
2066 1 33.29285837215039 2.290927736673833 26.594377624932253 0 0 0
1668 1 34.27121029080044 0.684653006107184 24.453693940576663 0 0 0
1631 1 36.90754372108063 -0.9280926026973253 24.588163965469818 0 0 0
2069 1 35.77263015650438 0.44751560973519044 26.818531383459003 0 0 0
1671 1 36.860282770948984 2.011328787483164 24.353945211579934 0 0 0
2070 1 38.53651182788035 2.1134376955701057 26.580258895833886 0 0 0
1672 1 39.37117669728913 0.5786544103983307 24.334476633628796 0 0 0
2073 1 41.123160062439155 0.6976251924942449 26.41059363624284 0 0 0
1635 1 41.96385297134567 -0.9682282212512332 24.320201560098777 0 0 0
2074 1 43.698413235178535 1.8202695355615948 26.75649960659039 0 0 0
1675 1 41.924036534352226 2.098429707286817 24.255821608351674 0 0 0
1676 1 44.48426003092028 0.5934341907222223 24.2478351771754 0 0 0
2077 1 46.30431996341015 0.47153810396990714 26.49354863316794 0 0 0
1679 1 47.114024521276505 2.033400085259136 24.27798951570383 0 0 0
2078 1 49.49934642292358 0.44887068780794337 24.505239758749664 0 0 0
2120 1 48.77085633546132 2.458374070338702 26.461139042649428 0 0 0
2042 1 1.9568632392299663 2.564830052049678 26.360013117309073 0 0 0
2082 1 2.150509537026912 5.376009997717993 26.249342078674562 0 0 0
1683 1 0.2621930508195227 5.073036246100877 24.00835732201544 0 0 0
1684 1 2.9357935771109713 3.7422368873328082 24.163322891321958 0 0 0
2081 1 -0.45529122391522314 3.789840707196765 26.2839763885652 0 0 0
1687 1 5.602779005429568 5.334981649562389 23.96834274614264 0 0 0
2085 1 4.793250392079206 3.901231389959941 26.18183793794344 0 0 0
1688 1 8.064068927803095 3.7865583488487733 23.99441076275234 0 0 0
2086 1 7.478182708724995 5.336639989929701 26.128016066072558 0 0 0
2051 1 10.037408111276427 3.530863097800429 26.015707679759654 0 0 0
1691 1 10.909510402021878 5.297698724425082 24.041650456859845 0 0 0
2090 1 12.753972578915059 5.603455590455971 26.020679810695515 0 0 0
1655 1 16.501617907261036 2.711260539500601 24.055775352254695 0 0 0
1692 1 13.777596084624266 4.112467064806765 23.86466286342215 0 0 0
1695 1 16.263323076029884 5.751613471849572 23.860049338450125 0 0 0
2096 1 15.477331672103585 4.51259736348999 25.995452531212457 0 0 0
2137 1 17.91389637715148 5.643233237600029 26.07307278288818 0 0 0
1696 1 18.792948649003595 4.180124621345115 23.890944746300843 0 0 0
1699 1 21.33845125209987 5.574383499019227 24.015954841170334 0 0 0
2099 1 20.493061133683874 4.3636252815276695 26.050234975399416 0 0 0
2098 1 23.066081996351556 5.585482629322737 26.10411657795655 0 0 0
1700 1 23.5542801303653 3.7203334267661816 24.280769099798604 0 0 0
1703 1 26.40595186812433 5.424739525166377 24.13861100438808 0 0 0
2101 1 25.453944535963004 4.192993385948274 26.177927227045732 0 0 0
1704 1 28.99623286046809 3.70069082022156 24.14359872748292 0 0 0
2102 1 28.255837229714185 5.588419494309715 26.134233293125426 0 0 0
2105 1 30.75759218671904 3.861117354881687 26.381958297095604 0 0 0
2106 1 33.25468204030574 5.28769332391931 26.297676158720115 0 0 0
1707 1 31.596254840295455 5.263368662486737 24.08027112327604 0 0 0
1708 1 34.250054524775194 3.8081979919238336 24.195927985103868 0 0 0
2109 1 35.8711023608969 3.702434778533382 26.387282170903532 0 0 0
1711 1 36.74749973594899 5.329169369461578 24.095707374299902 0 0 0
1712 1 39.46912324126036 3.6147055788611535 24.191656128442954 0 0 0
2110 1 38.49098461638387 5.292203826040119 26.12547497297785 0 0 0
2113 1 41.269492257074916 3.6558379849994065 26.373017930995196 0 0 0
2114 1 43.698217615007295 5.325414596097708 26.241918193463142 0 0 0
1715 1 42.01317650670961 5.273080321573012 24.03636614382666 0 0 0
1716 1 44.6204044204307 3.6702191652750553 24.05730075506516 0 0 0
2117 1 46.18103550116588 3.637572837710115 26.447056193152537 0 0 0
1719 1 47.06921199433839 5.0973663338094966 23.99377580474147 0 0 0
2118 1 48.92334433586973 5.328056242372323 26.393184653697812 0 0 0
1720 1 49.643776538845245 3.62330970745945 24.243727501651215 0 0 0
2124 1 2.243998363252187 8.443625011883451 26.136036309939087 0 0 0
1723 1 0.33201754368164893 8.334443519511739 23.92053773777292 0 0 0
1724 1 2.789609484716261 6.663168677953575 23.991702114812096 0 0 0
2087 1 4.900147931765334 7.045694776341486 26.052013991423753 0 0 0
2125 1 5.660316737458723 8.432259549071667 23.854408001704304 0 0 0
1728 1 8.245213958942758 6.845781638614675 23.854442553647388 0 0 0
2128 1 7.500063191610623 8.427907442471934 25.985215567537264 0 0 0
2129 1 10.879876574897377 8.463772785973605 23.853275960963884 0 0 0
2089 1 10.096656929740874 6.913081634573585 25.942532919590587 0 0 0
2132 1 12.483659388505648 8.609112490275747 26.02293281281093 0 0 0
1732 1 13.530086696924245 7.0679558504914155 23.829504911440242 0 0 0
2093 1 15.216024083658317 7.210692857179776 26.055003970007476 0 0 0
1735 1 16.05584498645108 8.677301346817545 23.74513379129666 0 0 0
2094 1 17.681844141061354 8.68921795092171 25.921999030635604 0 0 0
1736 1 18.629012293104033 7.213601164630765 23.875746902569965 0 0 0
1739 1 21.237330826367103 8.492517371648377 23.825541042464373 0 0 0
2138 1 20.355534985728596 7.172271533246359 26.18445574181651 0 0 0
2143 1 23.022332204607302 8.601552788450897 26.020180312420127 0 0 0
1740 1 23.93542153042635 7.046157769239832 23.941001858472358 0 0 0
1743 1 26.45086166847418 8.50577533137658 23.85609060764513 0 0 0
2141 1 25.587678235201388 7.212785333599312 26.026116163373267 0 0 0
2142 1 28.19632612675379 8.492975916162264 26.08176255975056 0 0 0
1744 1 29.05370119867267 6.94541180707458 23.98719815535107 0 0 0
2145 1 30.72885647206824 6.982588706533701 26.128290241192353 0 0 0
1747 1 31.574303686490477 8.44289332449427 23.874579818486026 0 0 0
2146 1 33.30563479024734 8.342094739585132 26.12506907716 0 0 0
1748 1 34.22595763733513 6.858263739218172 24.045937090272144 0 0 0
2149 1 35.87509536249364 6.871744119513126 26.129255428711684 0 0 0
1751 1 36.84142766949469 8.329834979239129 23.864252861769966 0 0 0
1752 1 39.45138704853936 6.869720280255331 23.917251216570374 0 0 0
2150 1 38.57056484614618 8.308635454866451 26.107712971679256 0 0 0
2153 1 41.12790247619279 6.849302577937717 26.301391800232146 0 0 0
1755 1 42.04302396439577 8.178751190067702 23.8633328210296 0 0 0
2154 1 43.70783810332604 8.364420301850197 26.166062602143423 0 0 0
1756 1 44.54253089748988 6.6795469238424126 23.92201180149296 0 0 0
2157 1 46.374012897508436 6.7298181020483945 26.09679883685933 0 0 0
1759 1 47.29861223907858 8.36263494156963 23.938165558778888 0 0 0
2158 1 48.99393322387576 8.279790653767575 26.063206721121645 0 0 0
1760 1 49.79527317381641 6.66228089034507 23.955493823609626 0 0 0
2121 1 51.55343944090883 6.7312112516642895 26.107025496603505 -1 0 0
1763 1 0.30908166179043717 11.480155783450236 23.828782037493937 0 0 0
2522 1 2.105159351234829 11.473101207695997 26.026496593689096 0 0 0
1764 1 2.8426404679158654 9.909221324012385 23.79208220333938 0 0 0
2164 1 3.128190849462447 12.892450168116586 23.752041668035904 0 0 0
2127 1 5.586158261868363 11.454164571654053 23.795582567758895 0 0 0
2525 1 4.6414508994989685 10.040966630314708 25.920287745258292 0 0 0
2565 1 4.781543334038064 12.960047740013213 25.96173120200303 0 0 0
2526 1 7.313249629655412 11.60421296907331 25.87460730601756 0 0 0
2126 1 8.158301398694979 9.897544746180042 23.785176842801206 0 0 0
2168 1 8.18468707800577 12.93570327098514 23.753835962898513 0 0 0
2131 1 9.818553509770275 10.130767060531264 25.958350135749253 0 0 0
2169 1 10.827211599811799 11.537287547836396 23.784798059642 0 0 0
2530 1 12.701828623576324 11.682457899708997 25.88723984374198 0 0 0
2130 1 13.41673141641206 10.061755238838366 23.722320993986244 0 0 0
2173 1 16.078344678628707 11.677301839159238 23.619267640701732 0 0 0
2133 1 15.139234907028102 10.148532684392269 25.981604272832254 0 0 0
2135 1 17.95036555418389 11.749576056303972 25.827825329470883 0 0 0
2134 1 18.59081891499169 10.04544669191069 23.65985461669408 0 0 0
2136 1 20.287344559569533 10.103722141531183 25.8623286650204 0 0 0
2177 1 22.931890584631326 11.658520069085629 25.9521988515351 0 0 0
1776 1 21.24959209014086 11.566048619755282 23.800513506412024 0 0 0
1780 1 23.83405638689257 10.064918048053151 23.787107290007132 0 0 0
2538 1 25.527018895444012 10.115050454537045 26.00751296793115 0 0 0
2181 1 26.336871513253918 11.618817208187732 23.819482971345792 0 0 0
2184 1 28.156760825481246 11.676267591467486 25.942044123958034 0 0 0
1784 1 29.053249771170563 9.919982101184207 23.924131546279195 0 0 0
2185 1 30.869844956698653 9.910114143656587 26.029353605365493 0 0 0
1787 1 31.604928899611085 11.410496574918746 23.694636142038906 0 0 0
2186 1 33.37162241135567 11.466380315071813 25.895929257780015 0 0 0
1788 1 34.17989366514689 9.96364148501819 23.96103783146516 0 0 0
2585 1 30.892942381641138 12.921523124893959 25.902473915358254 0 0 0
2189 1 35.98330868533127 9.968254858533712 26.01458165451718 0 0 0
1791 1 36.7678151869886 11.346158636974362 23.73312264456179 0 0 0
2191 1 35.92883687457591 12.78650657609965 25.94923789787914 0 0 0
1828 1 34.34059959248766 12.86322308424625 23.785206327996523 0 0 0
2190 1 38.60592376117441 11.49207013560484 25.92828760783369 0 0 0
1832 1 39.42160051091639 12.980747508722953 23.7042069695492 0 0 0
1792 1 39.51581269441816 9.908645438522734 23.900244716298154 0 0 0
2155 1 41.205217847449106 9.8793701941916 26.052538593601067 0 0 0
2193 1 42.045885445042984 11.411921082741696 23.839270281085476 0 0 0
2196 1 43.8371906108824 11.412417582588954 26.002855782570197 0 0 0
2194 1 44.70155026268179 12.83601511716341 23.788819471519275 0 0 0
1796 1 44.67790570508538 9.754064969822279 23.842239296439608 0 0 0
2197 1 46.430122252102535 9.958467087771332 26.163681653715493 0 0 0
2199 1 46.49804732908784 12.907272074659012 25.933512205379266 0 0 0
1799 1 47.23693109866852 11.299215012619587 23.84720615762025 0 0 0
2122 1 51.48019630496934 9.986879750194364 25.936126047363757 -1 0 0
1800 1 49.82117641413511 9.91559925258922 23.768236306217695 0 0 0
2161 1 49.00015527496171 11.453314201578246 25.95243859771606 -1 0 0
1840 1 49.90027347621023 12.981360776099518 23.674156554888526 0 0 0
2561 1 -0.31142436650628724 13.06673031245312 25.97805050859179 0 0 0
2601 1 -0.40265939797797645 16.06318426721033 25.77346649245785 0 0 0
2163 1 0.5736811016481351 14.45207365506037 23.61360399677639 0 0 0
2562 1 2.2535280134365085 14.473518446335955 25.94048367059112 0 0 0
2204 1 3.124324193469121 15.992538646916664 23.776471139165114 0 0 0
2167 1 5.6441730247616855 14.492741789332705 23.712966594340983 0 0 0
2605 1 4.811057700952746 16.095230869068583 25.859765850456686 0 0 0
2566 1 7.359046391813353 14.584747662219648 25.81305657841951 0 0 0
2208 1 8.305831477363121 16.05037749120601 23.617591160262204 0 0 0
2569 1 10.036922241611048 13.02364585363258 25.94287421715022 0 0 0
2609 1 10.001425908628047 16.155281846446712 25.798846602436424 0 0 0
2171 1 10.842866652680646 14.525056689876418 23.593716542267185 0 0 0
2570 1 12.575574536828547 14.671322573226178 25.84081820871102 0 0 0
2172 1 13.57798113508676 13.212623044252155 23.711725534017987 0 0 0
2212 1 13.429389575332488 16.094243044440493 23.53095962118273 0 0 0
2573 1 15.275339605893247 13.275213920457226 25.820663141037606 0 0 0
2175 1 16.095094759439387 14.754759347550046 23.589325152711176 0 0 0
2613 1 15.157035558137387 16.234485437865104 25.73598991826723 0 0 0
2174 1 18.703358987766688 13.088784043450865 23.64536396075034 0 0 0
2574 1 17.856229924604147 14.701816953896927 25.731766206025313 0 0 0
2216 1 18.7247377232088 16.317346253244818 23.587608538068384 0 0 0
2176 1 20.429426545004443 13.11286468946944 25.836899374032896 0 0 0
2617 1 20.53414496062208 16.191694953667863 25.80196306203886 0 0 0
2179 1 21.197570275981708 14.528962392376684 23.47310933201698 0 0 0
2578 1 22.86408425869229 14.645749708911687 25.798427918374156 0 0 0
2180 1 23.800625573172518 13.220049328284105 23.57632968518303 0 0 0
2220 1 23.837958431000466 16.17540250910611 23.521805338161176 0 0 0
2581 1 25.670234778738493 13.308153602191314 25.823039849228323 0 0 0
2183 1 26.48675368026815 14.7084618670339 23.685836357101497 0 0 0
2621 1 25.578808582779484 16.248903891866355 25.85167322253525 0 0 0
2182 1 29.049186963931668 13.130139675539798 23.762954159396763 0 0 0
2582 1 28.172584346833503 14.619224468667404 25.87430357068942 0 0 0
2224 1 29.06036341738408 16.110011354881692 23.692780468818977 0 0 0
2625 1 30.996547870350625 16.12649439554017 25.7302540849566 0 0 0
2187 1 31.755555512898358 14.370026384180232 23.768140615947605 0 0 0
2586 1 33.406810901598575 14.491899562979274 25.90166708479621 0 0 0
2228 1 34.344320900749906 16.029722851260757 23.609080578813376 0 0 0
2229 1 36.86397277835681 14.350614371118319 23.74749673621077 0 0 0
2629 1 36.039215820768504 16.108275397803215 25.911753374614 0 0 0
2195 1 41.09798507896191 13.062190337428706 25.80893597877731 0 0 0
2232 1 39.46299455044003 15.938186296335715 23.619588878191166 0 0 0
2590 1 38.57307422557949 14.537882583448262 25.890696570776583 0 0 0
2633 1 41.12923567511345 15.921950493803028 25.866472943071326 0 0 0
2233 1 42.092095721727105 14.386423543882906 23.708585965516473 0 0 0
2236 1 43.721667337981046 14.48346372693911 25.985213610340264 0 0 0
2237 1 44.60433844814072 15.844117127052005 23.706215101966144 0 0 0
2637 1 46.42038754847337 15.920074782649206 25.835976737359204 0 0 0
2198 1 47.3151739719801 14.399680989540638 23.75230944891667 0 0 0
2598 1 49.012074094040614 14.475918805690874 26.012398112893084 0 0 0
2240 1 49.74948360866094 16.017492237049012 23.70959122540399 0 0 0
2203 1 0.5332553307337751 17.51281202853604 23.546130523359583 0 0 0
2602 1 2.1151940420509123 17.538345104140596 25.776972356458135 0 0 0
2641 1 -0.37154249978722476 18.948666566922768 25.81372546366735 0 0 0
2244 1 3.127556210976968 18.927682071624034 23.66796633467559 0 0 0
2207 1 5.5982942144961925 17.49508746147204 23.545056427885626 0 0 0
2645 1 4.843118991408576 19.076456585365264 25.672277717783558 0 0 0
2248 1 8.366608182738874 19.12822050058241 23.617944523185127 0 0 0
2606 1 7.181973563853133 17.67535491439918 25.65762625142184 0 0 0
2649 1 10.139971820231507 19.269191785502347 25.77593032829078 0 0 0
2211 1 10.794686380170726 17.65842159072774 23.555994368779086 0 0 0
2610 1 12.609594491427885 17.703244332468703 25.76541700191375 0 0 0
2252 1 13.498682428084344 19.325052667503233 23.620517711835895 0 0 0
2215 1 16.0708260014311 17.83424723510721 23.498412837338446 0 0 0
2653 1 15.263867788333744 19.370622840207336 25.694883620092426 0 0 0
2256 1 18.698531616983622 19.18798745101998 23.5505518259274 0 0 0
2614 1 17.732037685775257 17.60370692783532 25.629248487890496 0 0 0
2219 1 21.336017007106385 17.55677541721752 23.56911574015124 0 0 0
2618 1 22.95271764322313 17.818859856988976 25.710391109215283 0 0 0
2657 1 20.429021963270056 19.45116101042362 25.631661618293176 0 0 0
2260 1 23.786495941972518 19.229643921252997 23.517703144625667 0 0 0
2661 1 25.526255609948976 19.308392282251997 25.582890737004426 0 0 0
2223 1 26.355457403696423 17.746338727614155 23.56310504902546 0 0 0
2264 1 29.082749634952325 19.283372847952965 23.516696084058154 0 0 0
2622 1 28.263351782601 17.811837705116318 25.704071338106132 0 0 0
2665 1 30.95831053130031 19.261921752209915 25.731376077694854 0 0 0
2626 1 33.44659813311591 17.733866277933494 25.637502990256287 0 0 0
2227 1 31.654847937461906 17.74591481381993 23.518556931433164 0 0 0
2268 1 34.29313713893728 19.246201927543595 23.624567485912394 0 0 0
2669 1 36.059150943181734 19.168934243859255 25.723707868511234 0 0 0
2231 1 36.84630577437774 17.6614840017127 23.496494220876187 0 0 0
2630 1 38.52774134088355 17.620625202611162 25.783803341735368 0 0 0
2272 1 39.605431267602356 19.038449305829328 23.549256397786984 0 0 0
2673 1 40.9977135760945 19.01425568212063 25.807146589741915 0 0 0
2634 1 43.7992395242167 17.448181191194056 25.775192969964163 0 0 0
2235 1 42.08825346265078 17.410263386877215 23.72313615418812 0 0 0
2276 1 44.6557131251663 19.095987287903974 23.616766899232157 0 0 0
2239 1 47.2531221746294 17.473137126188742 23.655910485795992 0 0 0
2677 1 46.35680408041553 18.986411687428774 25.759719771912426 0 0 0
2638 1 49.020985049964835 17.41777764386911 25.945083530317923 0 0 0
2280 1 49.750137211600176 19.019377237368765 23.658331740488258 0 0 0
2243 1 0.5196280828954093 20.543337482460732 23.754816945878574 0 0 0
2642 1 2.088332332433116 20.61856271431991 25.86963166613203 0 0 0
2283 1 0.5086473224547619 23.428645418312207 23.61911704081204 0 0 0
2284 1 3.229066933050912 22.00469638683412 23.51587526942653 0 0 0
2685 1 4.877858022071585 22.043680932782404 25.767706342276977 0 0 0
2247 1 5.735799969639199 20.584989802123904 23.491578837304946 0 0 0
2288 1 8.303948454629028 22.21415189497593 23.48388402348898 0 0 0
2646 1 7.42627595068332 20.62947794313374 25.785138887592336 0 0 0
2650 1 12.707625357128753 20.949916730518165 25.721878703320115 0 0 0
2689 1 9.998645233933459 22.378458363775003 25.541539912548387 0 0 0
2251 1 10.963633335359638 20.7890105732024 23.467325849170408 0 0 0
2255 1 16.0976323219538 20.837641427021946 23.445550983082786 0 0 0
2693 1 15.140027207290805 22.431487198968004 25.66877656908382 0 0 0
2654 1 17.773278660068033 20.891757067643272 25.59017411077229 0 0 0
2697 1 20.301351340412836 22.473476905403167 25.518281592007142 0 0 0
2658 1 22.969033713600705 20.91675603376685 25.630219595083073 0 0 0
2701 1 25.546384830720793 22.320878285686764 25.46947523287546 0 0 0
2662 1 28.174952272177215 20.78644229558021 25.52800674607031 0 0 0
2705 1 30.859643180056832 22.307447401567508 25.500103245951003 0 0 0
2267 1 31.622369283446158 20.750479939413758 23.4898837449678 0 0 0
2666 1 33.39002990254144 20.854522343314045 25.613024201807995 0 0 0
2308 1 34.18411494766467 22.353720239934113 23.41134828055242 0 0 0
2709 1 35.96647635235166 22.42780615155367 25.589089043022515 0 0 0
2312 1 39.367107017968436 22.176375164652924 23.448959354790976 0 0 0
2670 1 38.60306192822708 20.576651354455603 25.686704258769346 0 0 0
2713 1 41.05697515561047 22.029923778020844 25.68526179668209 0 0 0
2275 1 42.02145749984804 20.494055217531745 23.490630301135727 0 0 0
2674 1 43.625082173433086 20.53967726215499 25.766694786925733 0 0 0
2316 1 44.56049968821726 22.10555999369963 23.626582658701906 0 0 0
2717 1 46.280507379150976 22.170491185278003 25.810762778317116 0 0 0
2279 1 47.16405919519089 20.51525253122457 23.639129603834053 0 0 0
2320 1 49.768862432784545 21.919480069819794 23.623490968216093 0 0 0
2678 1 48.93895261764982 20.573145529547816 25.813379673982343 0 0 0
2681 1 51.55472155530639 22.08102986155743 25.740678719943887 -1 0 0
2682 1 2.182783575115861 23.59286969601914 25.555032280659884 0 0 0
2722 1 2.1529415955304056 26.724676435508616 25.5175415631213 0 0 0
2721 1 -0.47274581417605077 25.177537916057165 25.605196552623255 0 0 0
2287 1 5.7532509986355125 23.712029287976748 23.490420736481582 0 0 0
2725 1 4.778142516617492 25.221789845747182 25.516473125427595 0 0 0
2328 1 8.281763183352243 25.403123543455585 23.425693530514316 0 0 0
2686 1 7.256059729767752 23.802702253196966 25.74752912900106 0 0 0
2726 1 7.299352008426296 26.70005356629074 25.56960684609638 0 0 0
2729 1 9.979238826203638 25.30262407405169 25.573000922967488 0 0 0
2730 1 12.668134660020034 26.929185541003633 25.287655930455912 0 0 0
2690 1 12.729308564048187 23.823158450101108 25.637865248770233 0 0 0
2733 1 15.210028311366262 25.42085961308958 25.451208101243378 0 0 0
2734 1 17.73745313557811 26.85850250416402 25.327114416049568 0 0 0
2694 1 17.727384089458404 23.88578589025911 25.417585706695117 0 0 0
2738 1 23.154925246610883 26.910815217335653 25.278490423817566 0 0 0
2737 1 20.407926575967835 25.277390376317552 25.418272392380484 0 0 0
2698 1 22.968607646177254 23.898066063492152 25.403190049152023 0 0 0
2741 1 25.649027629761072 25.37229199367549 25.3448426998917 0 0 0
2742 1 28.263733633153095 26.97054119534667 25.027220446800804 0 0 0
2702 1 28.19836129591651 23.871473729396467 25.386378794122994 0 0 0
2745 1 30.72781903637455 25.413087758319165 25.260468820867956 0 0 0
2746 1 33.39806340511237 26.90710432775671 25.296840541343986 0 0 0
2706 1 33.46725431691523 24.010219467746094 25.536864916619674 0 0 0
2749 1 36.01808571967118 25.260932697683963 25.459345037282485 0 0 0
2750 1 38.580105393372804 26.883948965670744 25.305570104529508 0 0 0
2710 1 38.5379248762095 23.806974669610103 25.549185654204972 0 0 0
2753 1 41.04985122844869 25.344848861481463 25.34635226923649 0 0 0
2315 1 42.130753386038705 23.601957544509347 23.495546140787965 0 0 0
2754 1 43.57365066701675 26.8859441338128 25.427559888419644 0 0 0
2714 1 43.86505014953008 23.760029432518767 25.61355953032755 0 0 0
2319 1 47.20564168143032 23.611552585511507 23.617882568072506 0 0 0
2757 1 46.291930064999036 25.240675550420974 25.616606068575795 0 0 0
2360 1 49.580146166976505 25.13534230890865 23.402699496653526 0 0 0
2718 1 49.00306275642626 23.61255802920041 25.774010818563333 0 0 0
2758 1 48.96437163544384 26.73676682542074 25.429099252169497 0 0 0
2762 1 1.9676083581433752 29.724614672003327 25.080056249659492 0 0 0
2765 1 4.613705138541602 28.537506091936393 25.310823621534333 0 0 0
2766 1 7.323798324686517 29.722893261353533 25.24317523645094 0 0 0
2769 1 9.93646984145927 28.2484647625877 25.38624069242033 0 0 0
2770 1 12.625692675711022 29.85668164593222 25.194228824371393 0 0 0
2773 1 15.193855081473878 28.414794591268745 25.292790547947874 0 0 0
2774 1 17.90470214961662 30.03376603533416 25.11833531329464 0 0 0
2777 1 20.328802737133177 28.39494107265722 25.26158566188696 0 0 0
2778 1 23.118364298115285 29.87148176808821 25.066984340740422 0 0 0
2781 1 25.640649828463665 28.495100132993905 25.122265365451177 0 0 0
2782 1 28.35095596678555 30.05098005694129 25.110180019608762 0 0 0
2785 1 30.676776777513528 28.4588461076234 25.209041084986943 0 0 0
2786 1 33.34727479681881 30.096915785479894 25.35114628068758 0 0 0
2789 1 36.07646897963515 28.350979010378417 25.159934617974336 0 0 0
2790 1 38.50567495595267 29.973574909580947 25.020210311807507 0 0 0
2793 1 40.899336443509384 28.45940337781998 25.303436381284527 0 0 0
2794 1 43.59691326036352 30.110460759488078 25.04491252970536 0 0 0
2797 1 46.385066359718536 28.250610434599487 25.299895420762937 0 0 0
2798 1 48.93737978069608 29.896841415056073 25.370573849677445 0 0 0
2761 1 51.5436983734034 28.21721819719702 25.384080565007736 -1 0 0
2004 1 1.9887626213382004 32.82697606937113 25.078788602464 0 -1 0
2001 1 -0.4065928960792746 33.51282294774871 23.722485299526355 0 -1 0
2367 1 4.490710274850626 31.338568954960863 25.06556332525769 0 0 0
2006 1 9.709931358030108 33.808314241478605 24.9554757012646 0 -1 0
2366 1 7.124445490476431 32.66500410286928 25.035196226384635 0 0 0
2008 1 9.789224044502715 31.024589755656628 25.050129109174044 0 -1 0
2409 1 12.369777642983717 32.66954675470625 25.00144017360655 0 -1 0
2413 1 15.320474824299145 31.33353313981671 25.188606677316457 0 -1 0
2414 1 18.110737246430897 33.114258313397954 24.94532656914338 0 -1 0
2417 1 20.70535536005468 31.4181944311932 24.9677279933467 0 -1 0
2418 1 23.274216254212014 32.9002760977129 24.77235963238716 0 -1 0
2421 1 25.69818896469303 31.307165726825467 25.10413008967051 0 -1 0
2422 1 28.44359910506119 32.80421040583034 24.803510168824257 0 -1 0
2386 1 34.086565630492004 33.35648415357664 25.26538876263502 0 0 0
2425 1 30.910967580840836 31.466621954069495 24.926481687682042 0 -1 0
2391 1 36.00999370345143 31.354868557697017 25.152238629348968 0 0 0
1992 1 38.601951620510306 32.66744265082363 24.450892397194103 0 0 0
2395 1 41.14059349558144 31.89806963711262 25.288222876316233 0 0 0
2394 1 44.053995549008576 33.07452094422406 25.002765182231688 0 0 0
2437 1 46.545599209123154 31.425022709142162 25.24840000575813 0 -1 0
2401 1 51.53327131002962 31.30114479896484 25.23990403935731 -1 -1 0
2040 1 49.06350723110667 32.96437597060988 25.085656345845965 0 -1 0
2845 1 1.8796422598255451 -2.9835350158793785 29.885732686082346 0 0 0
2441 1 1.0713257371810068 -1.609661627661739 27.4852433135821 0 0 0
2402 1 2.698353585006571 -4.088274732800621 27.351144761404647 0 0 0
2407 1 5.646901779518532 -2.8606470828321164 27.38793700276501 0 0 0
2807 1 4.587035465818442 -4.447803517599167 29.743198752557348 0 0 0
2447 1 4.286248014889325 -1.6075696391532688 29.791954730761685 0 0 0
2406 1 8.062875105504983 -4.27472093097371 27.486576000904744 0 0 0
2448 1 7.087506503530765 -2.555311849374435 29.649411052050148 0 0 0
2849 1 9.725452932103938 -4.093713044661598 29.758225765306012 0 0 0
2446 1 7.999164308156509 -1.2700258545753744 27.226338995066584 0 0 0
2449 1 10.256375469656666 -2.979395516711852 27.14191723987987 0 0 0
2852 1 10.074469488325386 -1.1452685475177886 29.369615709334663 0 0 0
2450 1 12.397960291427141 -1.4075102312676382 27.247684853116056 0 0 0
2452 1 12.984514438998682 -4.4466371809548635 27.311507950315384 0 0 0
3253 1 12.591258233068325 -2.8430782650587942 29.70626318991805 0 0 0
2815 1 15.017557718903031 -4.429463492031595 29.809115821631693 0 0 0
2853 1 15.035125288286855 -2.601957070692932 27.407635811113636 0 0 0
2855 1 15.101104652032676 -1.3934121342827268 30.046494965160978 0 0 0
2856 1 17.449672349551893 -2.9517727371109403 29.82058064331797 0 0 0
2859 1 20.06615341531289 -1.4832509752774463 29.32647832075717 0 0 0
2456 1 18.87719449476637 -3.9496704084737817 27.178042141870588 0 0 0
2858 1 21.528519952614694 -2.635558591967941 27.234852745493548 0 0 0
2857 1 20.398329885113046 -4.203895706922344 29.69396314729815 0 0 0
2860 1 22.939649520905423 -2.8735408562054197 29.781903691518753 0 0 0
2460 1 23.88445660881966 -4.056063074525636 27.337999263687966 0 0 0
2861 1 25.666497166189398 -4.192024668950341 29.727040415677894 0 0 0
2462 1 26.502371848733397 -2.689337443739114 27.283950244142343 0 0 0
2501 1 25.453992618557606 -1.335728753661832 29.49177305092582 0 0 0
2458 1 23.952351357817115 -1.312080815526604 27.19783493574997 0 0 0
2862 1 28.282905352904233 -2.4062735360670264 29.43907613481665 0 0 0
2464 1 28.99002042922939 -4.152086523633559 27.203342730589675 0 0 0
2027 1 30.640689023525002 -2.0470367084998053 27.392865517178713 0 0 0
2865 1 30.863419774459985 -3.9181630483390366 29.457626813163152 0 0 0
2028 1 33.14369089691648 -3.6143654622706762 27.584795125486398 0 0 0
2469 1 34.02730357519408 -2.275779220808597 29.642774409599436 0 0 0
2029 1 35.79455006803802 -2.3278449019067042 27.41149323798872 0 0 0
2431 1 35.82034467465536 -4.411630696570502 29.398718185267462 0 0 0
2033 1 40.81919865524547 -2.144359637752899 27.030526989914318 0 0 0
2390 1 39.57278801400278 -4.470581480111585 26.928073642892045 0 1 0
2032 1 38.30888366171692 -3.004321364171079 28.94494005549838 0 0 0
2435 1 41.050183529071276 -3.6264638041163595 29.673044958568294 0 0 0
2434 1 43.74458072432449 -2.6129716510828898 29.949636756638323 0 0 0
2036 1 44.77214537551231 -3.855008088991057 27.3059056231189 0 0 0
2477 1 47.536704410821955 -2.172000016249121 27.31347911994235 0 0 0
2877 1 46.4511818909271 -3.9399699670815527 29.68647537243918 0 0 0
2076 1 45.24730453604673 -1.1513483074953026 28.48340053590579 0 0 0
2841 1 51.49019492611656 -4.264911338661138 29.824454755089874 -1 0 0
2444 1 51.40034347142502 -1.4272608584969588 29.76230041034245 -1 0 0
2480 1 49.084932115966964 -2.657330381542593 29.557669820653572 0 0 0
2438 1 49.62237893245151 -4.339410538048159 27.430799582665543 0 0 0
2842 1 1.8741226093578458 0.09393347720416845 30.22605923255697 0 0 0
2445 1 2.83930135458273 0.7118294669044056 28.068246586470167 0 0 0
2043 1 -0.30957811754227293 0.981878992865683 27.148537145205598 0 0 0
2047 1 4.10735646290394 1.6532871123061286 30.180553396295405 0 0 0
2846 1 5.747935163946267 0.055206337677333295 28.219453200364253 0 0 0
2851 1 7.864575474248092 0.7168686398030397 29.507272646601244 0 0 0
2889 1 10.266165895012254 1.558238245759025 29.92682711964131 0 0 0
2492 1 11.972693822618004 1.901946133200397 27.701532828371043 0 0 0
2850 1 12.720243469073344 0.07795671945810145 29.870734513563345 0 0 0
2495 1 15.27586684912262 1.3281520082911848 30.290259973787858 0 0 0
2455 1 14.539121669077266 0.2866882930498518 27.687325938185428 0 0 0
2854 1 16.976156554471363 -0.8282912862909293 28.153845323235746 0 0 0
2896 1 17.823005879359858 -0.028346971932665888 30.423927729979557 0 0 0
2459 1 18.81544351932037 1.2641171357354235 28.285641950307998 0 0 0
2059 1 21.688546046980527 0.2577256629956244 27.311129191609446 0 0 0
2897 1 20.488566453977878 1.4498791877985555 30.408604374986428 0 0 0
2900 1 22.836573836500722 0.15436936449343008 29.67077395146515 0 0 0
2058 1 23.82854522559323 2.000625954247285 27.06602500548985 0 0 0
2061 1 26.084273171233523 0.3819223870769468 27.02310803528143 0 0 0
2901 1 25.199861110936187 1.3343411802384981 30.16081389824733 0 0 0
2064 1 28.970442840282416 0.5956899298065998 28.900868470222907 0 0 0
2026 1 33.216898410198496 -0.8015164708578872 27.21493250133918 0 0 0
2426 1 31.66864406699847 -0.4441084876755008 29.542483294365844 0 0 0
2465 1 31.556588459227033 2.404970510018728 28.581453832607156 0 0 0
2068 1 34.34053741794757 0.7820590203680329 28.980435389041308 0 0 0
2031 1 36.84550972091533 -0.7602599997728481 29.52329868409509 0 0 0
2071 1 37.021916046862486 2.1863444911895478 28.823321645752888 0 0 0
2072 1 39.468868407790836 0.2698317071696472 28.619652276041478 0 0 0
2035 1 42.30029303308031 -0.6367377215554639 28.517655877145206 0 0 0
2474 1 43.94577861978986 1.0446566393544803 29.95511257071914 0 0 0
2075 1 41.54509519095198 2.3404723247503556 28.831618088525495 0 0 0
2479 1 47.363803953755976 -0.5716578952199001 30.052961862382876 0 0 0
2079 1 46.52452058717222 1.9105642286538842 28.685424826029017 0 0 0
2918 1 48.56393737938568 2.4770356597611176 30.36421990027788 0 0 0
2520 1 51.23424586071616 1.2418898895528345 30.23909025760234 0 0 0
2478 1 49.02718388495829 0.42235588273536706 28.309087286826298 0 0 0
2442 1 1.0472982129931683 2.8030178919620656 29.087849586079972 0 0 0
2083 1 0.4262359485166545 5.464610976827153 28.418670992324685 0 0 0
2488 1 6.110485079767864 2.7856363898639387 28.78884090386991 0 0 0
2484 1 3.283173948364385 3.817161114888158 28.439844280205318 0 0 0
2485 1 5.83765158241138 5.548324950159367 28.1709573784961 0 0 0
2885 1 4.621359808760509 4.68416774304292 30.427997559706725 0 0 0
2886 1 8.703940760152902 3.538624789428159 28.417294432873316 0 0 0
2887 1 7.5169337214748255 5.375789377390076 30.334400517175805 0 0 0
2890 1 12.746269465674509 2.7472791123248905 30.152298359244742 0 0 0
2489 1 10.808384924460169 5.501679742884608 28.075177284577677 0 0 0
2491 1 12.657551543242707 5.762678141304487 30.33985988314068 0 0 0
2891 1 10.193101259503985 4.433402728885815 30.41961084161194 0 0 0
2092 1 13.610367140754958 4.179453073079593 28.084162335277554 0 0 0
2095 1 16.094161327835803 5.8134675567829905 28.23651667965807 0 0 0
2933 1 15.39147066297397 4.238632144015698 30.348966881173745 0 0 0
2496 1 16.17346899563338 2.6598247650617983 27.990173993183113 0 0 0
2497 1 18.76175200326461 4.077339867162504 28.224297670601544 0 0 0
2536 1 17.83711514851278 5.802978951773964 30.426629764545265 0 0 0
2498 1 21.328161427677898 5.698019267628624 28.353859174070347 0 0 0
2500 1 21.29030599952822 2.757454775891257 28.17434400676092 0 0 0
2499 1 20.653735586405002 4.231567350480805 30.398785163628368 0 0 0
2100 1 23.89564072027133 4.251324336648318 28.55077890065039 0 0 0
2103 1 26.453491266353247 5.775698765729562 28.194023266546978 0 0 0
2063 1 26.379322831412427 2.885148451285005 28.281275803514045 0 0 0
2104 1 29.019355885594706 4.059420968254473 28.407131343145526 0 0 0
2504 1 27.921826756406244 2.650285612968804 30.419610117483533 0 0 0
2107 1 31.587791623384536 5.690297560334535 28.340549256461404 0 0 0
2067 1 34.15249357056484 3.8426958544007395 28.711758529871798 0 0 0
2111 1 36.79206330533411 5.424246034553251 28.43537469098014 0 0 0
2112 1 39.22757236221946 3.7946261054511776 28.517219983944884 0 0 0
2115 1 41.954600978087726 5.4695356954665435 28.469303542726617 0 0 0
2116 1 44.11663903232957 3.7570327343868613 28.6002591466983 0 0 0
2119 1 47.2127450061609 5.414074422404102 28.517553553200827 0 0 0
2481 1 50.12715721286423 3.606308950355851 28.55877803922403 -1 0 0
2123 1 0.5260149937385084 8.374846898341678 28.320652901384275 0 0 0
2925 1 5.00055974530279 7.239911259542648 30.39277711666458 0 0 0
2084 1 3.013100768572118 6.767374443337351 28.423407285288725 0 0 0
2486 1 5.67450261217032 8.634922991626565 28.11330719642345 0 0 0
2528 1 7.356707707092432 8.71809741418801 30.343735297820025 0 0 0
2088 1 8.342028465051854 7.077316536840465 28.206719192454837 0 0 0
2928 1 9.948000158321086 7.234349405747759 30.347602013352443 0 0 0
2932 1 12.717321377507064 8.632046737701696 30.378450091638015 0 0 0
2091 1 10.72730665810717 8.644720439797814 28.162206822918776 0 0 0
2533 1 15.223687311850782 7.17081743061404 30.407980278793634 0 0 0
2490 1 13.567086621592242 7.219858938884547 28.264283775629426 0 0 0
2534 1 16.028305704950387 8.679389259203864 28.16976290906029 0 0 0
2537 1 17.73872524641869 8.667978551639143 30.361351851475856 0 0 0
2494 1 18.58037815171873 7.284547363442169 28.192676422646205 0 0 0
2139 1 21.276718257730998 8.700706324383264 28.17892317251516 0 0 0
2140 1 23.86974527507035 7.196105668984071 28.333372862786614 0 0 0
2541 1 26.512722519840654 8.692007425442581 28.138679929223667 0 0 0
2144 1 29.03358101279128 7.070767644567205 28.289710800997128 0 0 0
2147 1 31.67124902767704 8.602417152911018 28.323277695801284 0 0 0
2148 1 34.13982890686977 6.9369449916047135 28.401184433937665 0 0 0
2151 1 36.77162696080782 8.397898950301869 28.229105081346468 0 0 0
2152 1 39.3839298333271 6.782676409261647 28.431096221124335 0 0 0
2556 1 43.788514636927715 8.579291246336613 30.41499469537358 0 0 0
2553 1 42.058118709561185 8.394197461534548 28.244627549201976 0 0 0
2156 1 44.631345040863735 6.910476635721215 28.358186580823496 0 0 0
2159 1 47.3761300575765 8.385746773981335 28.286695322689848 0 0 0
2160 1 49.90240147617824 6.8558385731794615 28.469845724172707 0 0 0
2921 1 -0.40424669077228326 9.92914936341239 30.421758790719974 0 0 0
2961 1 -0.4383822991244841 12.925826155122142 30.405923169748483 0 0 0
2523 1 0.41072928169293266 11.483269939306037 28.23371796252471 0 0 0
2927 1 4.930792670088531 10.270267946446964 30.312977174572108 0 0 0
2564 1 3.031326883566072 12.952505847218863 28.363655391347212 0 0 0
2524 1 3.0323488079208634 10.001400156378487 28.276138081580424 0 0 0
2527 1 5.670408509790679 11.620542172400203 28.091414421293173 0 0 0
2529 1 8.330845966053703 10.181346840132557 28.21436882349831 0 0 0
2926 1 7.389792123646083 11.54719675734092 30.431798226047373 0 0 0
2929 1 9.868007344372138 10.127406123977421 30.378626735914228 0 0 0
2930 1 12.535318927211948 11.643199929102519 30.24873552694507 0 0 0
2531 1 10.746247633212196 11.625481895173202 28.140021359167793 0 0 0
2532 1 13.503093106630661 10.262106509904815 28.087542120311593 0 0 0
2935 1 15.166376980798299 10.273364002455844 30.327258543719566 0 0 0
2535 1 15.951400661542067 11.639910008704184 28.174792452384064 0 0 0
2937 1 17.783244854457433 11.675767637714753 30.296212393174006 0 0 0
2577 1 18.68363703637462 10.227552013817622 28.14760796630669 0 0 0
2940 1 20.447072241308906 10.245126482415111 30.30040767246968 0 0 0
2938 1 22.993255802367127 11.763014997764426 30.21238709552805 0 0 0
2539 1 21.178492503943342 11.641783298666848 28.112376837206032 0 0 0
2941 1 23.896312149054044 10.268831983819018 28.22250873848739 0 0 0
2943 1 25.56081862760258 10.303039903311518 30.273867142517492 0 0 0
2543 1 26.359455254159446 11.731564960064912 28.073032949008507 0 0 0
2942 1 28.153669542470595 11.771026981050191 30.390470968158766 0 0 0
2542 1 29.09973575587222 10.16570286228287 28.238376170361562 0 0 0
2945 1 30.903918399072772 10.157803295700077 30.411961019363236 0 0 0
2946 1 33.29506729906561 11.64973951775443 30.338420152094564 0 0 0
2547 1 31.7657355253009 11.536485128452753 28.12987228524024 0 0 0
2188 1 34.15346684736622 9.993250095930629 28.190430642742246 0 0 0
2589 1 35.77415958537911 10.044956627451521 30.412265941510597 0 0 0
2192 1 36.83202397793609 11.504185219238341 28.1906161034726 0 0 0
2993 1 41.086403944762424 12.897654057128353 30.375956015167983 0 0 0
2592 1 39.40375529594196 12.971424317740745 28.14819309511944 0 0 0
2593 1 39.51354592017239 9.823079450769749 28.210529475634512 0 0 0
2950 1 38.58687666719133 11.517759628118686 30.39737466622221 0 0 0
2555 1 41.19117017293121 10.019266074743783 30.36886978233391 0 0 0
2554 1 41.897453334917216 11.511369437762738 28.066993255377586 0 0 0
2596 1 43.61177832298061 11.437713589109483 30.20385447147534 0 0 0
2559 1 46.42612724163024 9.979882684618032 30.431652600770533 0 0 0
2557 1 44.723793450858494 9.848399354544492 28.193830347675558 0 0 0
2597 1 47.27550286775964 11.539911867350007 28.218008817845977 0 0 0
2958 1 48.989183910395184 11.438366240156363 30.35720053248812 0 0 0
2200 1 49.891689213331716 9.88792529756739 28.2579188035677 0 0 0
2563 1 0.45891757323049676 14.543321862100722 28.063343029818444 0 0 0
2962 1 2.2906976173243088 14.592368231120819 30.188704936966182 0 0 0
2604 1 3.024205980916749 16.064098812734542 28.081416352535083 0 0 0
2965 1 4.893185514867711 13.052810848797204 30.177635827698236 0 0 0
3005 1 4.792284246394574 16.124081107842283 30.24524617794678 0 0 0
2567 1 5.614874315533873 14.549683721043046 27.996607997922276 0 0 0
2568 1 8.226231578952051 13.213568805050862 27.96651190497893 0 0 0
2966 1 7.395546596348143 14.65385678483958 30.178469653021207 0 0 0
2608 1 8.371412183972309 16.188895285549016 27.925169048933423 0 0 0
2969 1 9.987972634796497 13.107382008370195 30.376898309511425 0 0 0
2571 1 10.867989210240838 14.582104371490487 28.177157259709094 0 0 0
2970 1 12.594196728908607 14.682697632838046 30.348875779635453 0 0 0
3009 1 10.046153438276257 16.078304721531214 30.3197026434832 0 0 0
2973 1 15.245119127332547 13.20044022286286 30.277720413183232 0 0 0
2612 1 13.421744904794705 16.15150116807154 28.039220451355874 0 0 0
2572 1 13.450602425779534 13.103967737300238 28.098513820294283 0 0 0
3013 1 15.245084351748961 16.094584186535407 30.22977595548961 0 0 0
2575 1 15.981104782084337 14.664339720818823 27.93866200853352 0 0 0
2974 1 17.708957978234096 14.65116333931913 30.34768309101706 0 0 0
2576 1 18.794009400522533 13.255235001831284 27.999215126273736 0 0 0
2616 1 18.669882208728954 16.172191050663265 28.134961074886572 0 0 0
2579 1 21.14680502398407 14.746083549438787 27.955499228130236 0 0 0
2977 1 20.487801186835124 13.362439919616534 30.21158748555132 0 0 0
3017 1 20.453870366346102 16.360972015624455 30.152024492081 0 0 0
2978 1 23.055863671490318 14.785284623300647 30.21923461086462 0 0 0
2583 1 26.456623349774432 14.675157903968671 27.874128204463236 0 0 0
2981 1 25.655270570559807 13.188431939587218 30.22396314907135 0 0 0
3021 1 25.58906319466014 16.202194719399724 30.126089992908852 0 0 0
2620 1 23.8762717702443 16.3091451917283 27.95551637954577 0 0 0
2580 1 23.822303893646858 13.257615088722414 27.99295058937942 0 0 0
2624 1 29.055607268890277 16.189216340446688 27.910730903675155 0 0 0
2982 1 28.15218837928774 14.887516920114198 30.17126055947774 0 0 0
2584 1 29.12685318424451 13.24918081205572 28.13935156196998 0 0 0
3025 1 30.751737288253107 16.238430638118338 30.187891447016288 0 0 0
2985 1 30.878261883783452 13.327349708050377 30.270221575254542 0 0 0
2986 1 33.36218280194721 14.715079901935173 30.29253920211239 0 0 0
2587 1 31.694179396384396 14.72052126233434 28.016695516667752 0 0 0
2628 1 34.1935170754403 16.30960966961866 27.896456689104124 0 0 0
2588 1 34.163080343729575 13.013626368454013 28.11089115048274 0 0 0
3029 1 35.97810601618889 16.173246483302012 30.149384535020754 0 0 0
2591 1 36.70829220196673 14.59651355187064 28.04201783423082 0 0 0
2989 1 35.87246857431414 13.1606388663451 30.221498421312667 0 0 0
2632 1 39.4102529879229 16.084391390337426 28.070905675150243 0 0 0
2990 1 38.58817804072682 14.716277883635605 30.18077105205537 0 0 0
3033 1 41.16018199889372 16.133217441089066 30.218806894005684 0 0 0
2994 1 43.62437655864795 14.54520311163187 30.272266760112558 0 0 0
2595 1 41.868571369196786 14.404374293662244 28.10185036709055 0 0 0
2594 1 44.62313875426641 13.113236008044549 28.213294755440643 0 0 0
2636 1 44.65761802687241 16.113469010133304 28.089720543147152 0 0 0
3037 1 46.40663290145008 16.153311668645763 30.30060965364026 0 0 0
2599 1 47.265497240010916 14.470845977748308 28.1784588719577 0 0 0
2997 1 46.37353079126139 13.052528213756599 30.320071789637392 0 0 0
2998 1 48.9606335488571 14.524667559277034 30.296136085363585 0 0 0
2640 1 49.9684325137445 16.11467874694151 28.15862444686172 0 0 0
2600 1 49.98111628859674 13.00236499374332 28.191771680576664 0 0 0
3001 1 51.5595176154349 16.100912698355117 30.38902544092768 -1 0 0
2603 1 0.4282458745856932 17.505772580614895 28.082642749248574 0 0 0
3002 1 2.1786791636467417 17.534008415424346 30.151043410587263 0 0 0
3041 1 -0.40009115919356475 19.090794505684883 30.201724492702965 0 0 0
2644 1 3.1013244479999447 19.172748180515892 27.970781698209148 0 0 0
2607 1 5.5993829504640225 17.504647023719965 27.86438256017025 0 0 0
3045 1 4.847850077742454 18.954839129007738 30.23603931850407 0 0 0
3006 1 7.451802854319011 17.687309683033423 30.084431899366653 0 0 0
2648 1 8.332828883297081 19.03469303718562 27.899535589087076 0 0 0
3049 1 9.958312139735323 19.246525221215062 30.165820689197314 0 0 0
3010 1 12.632845143931814 17.675811176855788 30.293636638191 0 0 0
2611 1 10.983349549296332 17.77821660386565 28.015052180611672 0 0 0
2652 1 13.525020565447539 19.120052621350112 27.84530868741504 0 0 0
2615 1 16.12125885137643 17.59542308328961 28.010650656009094 0 0 0
3053 1 15.2723062017448 19.20678694932028 30.165716119835803 0 0 0
3014 1 17.710565247376113 17.67091653637838 30.175433644439607 0 0 0
2656 1 18.714071249166736 19.197264570757344 27.915039844865465 0 0 0
3057 1 20.32627254119883 19.273822847303915 30.135652973196173 0 0 0
3018 1 23.023404135899497 17.808414563428403 30.051260595869355 0 0 0
2619 1 21.22319134082146 17.892073746787336 27.83028156847385 0 0 0
2660 1 23.925001859696657 19.353613851531048 27.76735671284598 0 0 0
2623 1 26.342181274534845 17.89057483105659 27.91125543697019 0 0 0
3061 1 25.761790299123852 19.258105372900854 30.080088442967376 0 0 0
3022 1 28.2254146021254 17.80988662595044 30.002513168670813 0 0 0
2664 1 29.094280102360294 19.35617629235261 27.88039262714345 0 0 0
3065 1 30.913186191457182 19.300959493739573 30.0841238380769 0 0 0
3026 1 33.50638447971984 17.68928315483942 30.15224957556588 0 0 0
2627 1 31.742444712210965 17.81085595840961 28.040295037180154 0 0 0
2668 1 34.26508958654577 19.23914110036271 27.844602950720315 0 0 0
2631 1 36.74870043670478 17.698582548252705 27.943078280948622 0 0 0
3069 1 36.01299670600672 19.138610875394683 30.103463232482174 0 0 0
3030 1 38.56884243058076 17.718627412330047 30.145740273459044 0 0 0
2672 1 39.244095641276175 19.142676903247843 27.94244182325915 0 0 0
3073 1 41.02455377505882 19.1212595458614 30.1482103052526 0 0 0
2635 1 41.99456112560665 17.56087750175144 27.94178460299103 0 0 0
3034 1 43.81818286638864 17.59005410256125 30.13001755792 0 0 0
2676 1 44.6115266330055 19.17480211742985 27.949319816271522 0 0 0
2639 1 47.295088939879605 17.537689108310705 28.0098420818868 0 0 0
3077 1 46.28769187699301 19.078167080983192 30.167050892529776 0 0 0
3038 1 48.90998517607342 17.538303052665253 30.238135468372885 0 0 0
2680 1 49.86098610549078 19.092847860668517 28.005902946576207 0 0 0
3042 1 2.3126725060174973 20.55888594007559 30.199882710915023 0 0 0
2643 1 0.3540888598165174 20.646863358136525 28.03287423014598 0 0 0
2684 1 3.1890776149941944 22.050042286378932 27.934080553176674 0 0 0
2647 1 5.649141663789194 20.599403327659832 27.897477060698925 0 0 0
3085 1 4.684911103124843 22.169609922727943 30.158192671441167 0 0 0
3046 1 7.405303429253544 20.67552410988766 30.17150159528072 0 0 0
2688 1 8.232451235165083 22.31541978458811 27.817456150216913 0 0 0
3089 1 9.830439731967989 22.371758300178794 30.072957705889973 0 0 0
2651 1 10.804249414312766 20.763648250571755 27.89176524028569 0 0 0
3050 1 12.585461152716332 20.70232589245019 30.029263999717838 0 0 0
2692 1 13.442028360891442 22.307772544794997 27.90309888777596 0 0 0
2655 1 16.020672896988472 20.68773774790837 27.738833703155144 0 0 0
3093 1 15.105399736234727 22.26526282212476 30.005173744787843 0 0 0
3054 1 17.740884947788405 20.8463803535105 29.958879841729757 0 0 0
2696 1 18.547224494539197 22.396721874376187 27.64446127780462 0 0 0
3097 1 20.463634362271748 22.38809244013664 29.923382171248882 0 0 0
3058 1 23.055217073197547 20.706622408773985 29.912204257526227 0 0 0
2659 1 21.201200220159656 20.86809351966463 27.834907405733954 0 0 0
2700 1 23.853531646182272 22.476275088046304 27.723192820640964 0 0 0
3101 1 25.706459523363943 22.421544681113435 29.991024362730744 0 0 0
2663 1 26.48713165988642 20.88040698003585 27.716079007379403 0 0 0
2704 1 29.0625438097957 22.32733580335087 27.63752340425444 0 0 0
3062 1 28.370094198470426 20.899609266128138 29.90488303417933 0 0 0
3105 1 30.944005157788638 22.263091232972094 29.826212848537043 0 0 0
3066 1 33.427893109458566 20.77140008813169 30.003615505199708 0 0 0
2667 1 31.725839230776717 20.84723669212212 27.83214051579476 0 0 0
2708 1 34.30894420486075 22.386458769927405 27.705009923086287 0 0 0
3109 1 35.98671729821697 22.371102490567285 29.97741142910105 0 0 0
2671 1 36.73763002960264 20.763462757929894 27.83000037166987 0 0 0
2712 1 39.36355765933256 22.21693794709955 27.91787684034177 0 0 0
3070 1 38.58058711556038 20.756130618669502 30.07927508466549 0 0 0
3113 1 40.951305376968506 22.304162687032736 30.055501498943244 0 0 0
2675 1 41.940955746012236 20.604193679325235 27.86922783429136 0 0 0
3074 1 43.50183826672726 20.654364926434123 30.165615491104745 0 0 0
2716 1 44.360916898496185 22.193752452709983 27.93880579436915 0 0 0
3117 1 46.21644738463473 22.149689218703017 30.031006809912785 0 0 0
2679 1 47.13425451948942 20.527943581118738 27.96842290962203 0 0 0
3081 1 51.539940128035056 22.19180450704831 30.130016555405025 -1 0 0
3078 1 48.890043712111066 20.58845430011494 30.033267405458634 0 0 0
2720 1 49.85109786696596 22.12779238886421 27.9293054590339 0 0 0
3121 1 -0.39329810670434995 25.20279275951793 29.93957006926183 0 0 0
3082 1 2.1978862575977725 23.802798592435003 30.071164524760455 0 0 0
2683 1 0.4644759711451667 23.707158832469574 27.900628011032406 0 0 0
2723 1 0.3900558487342196 26.6690795663488 27.729648791370213 0 0 0
3122 1 2.0541688784846235 26.71287824077472 30.037178102585543 0 0 0
2724 1 3.1009100487786934 25.256301161806743 27.706198970126483 0 0 0
3125 1 4.686262718343446 25.387539258794877 29.990845748406397 0 0 0
2727 1 5.557389167545122 26.82680403825511 27.75422423609025 0 0 0
2687 1 5.574803133039259 23.733368891100696 27.902731052231502 0 0 0
3129 1 9.919052399491092 25.28299608800445 30.02428573000579 0 0 0
2728 1 8.224071903244944 25.263760182200706 27.833017073920555 0 0 0
3126 1 7.38120517561531 26.7721916534632 29.908813734301 0 0 0
3086 1 7.242563822961011 23.6489090480211 30.082568756674256 0 0 0
2731 1 10.839275750824827 26.924220327595098 27.621405693593648 0 0 0
3090 1 12.616195746431446 23.737542245161137 29.96731367330599 0 0 0
3130 1 12.52646946722301 26.793504526911022 29.88770059324823 0 0 0
2691 1 10.87540755327698 23.72383683819589 27.887257749627327 0 0 0
2732 1 13.308771791299108 25.360909546692533 27.63111131850182 0 0 0
2695 1 15.892859287394348 23.958038174794655 27.701169364178515 0 0 0
2735 1 15.993011916762171 26.86497225760828 27.632436129819737 0 0 0
3133 1 15.085398674678391 25.376609703135944 30.00306384014222 0 0 0
3094 1 17.889171115434046 23.752381686633935 29.907087876240297 0 0 0
2736 1 18.666313701990997 25.404177129168293 27.696959903278525 0 0 0
3134 1 17.737457770297414 26.877544082286672 29.831649294087242 0 0 0
3137 1 20.400842110918216 25.28846867066044 29.8821941599786 0 0 0
3098 1 23.04867907198093 23.892980181127115 29.75454289732243 0 0 0
2699 1 21.198345948272113 23.870841985597213 27.659659518274346 0 0 0
2739 1 21.3210541439206 26.995454587290016 27.494701396319975 0 0 0
3138 1 23.013097268866595 26.845196426857797 29.79131048069757 0 0 0
2740 1 23.893663990420006 25.40448371319185 27.584918547970048 0 0 0
2703 1 26.45551043087779 23.942707237914505 27.64093073647261 0 0 0
3141 1 25.595743013006942 25.490974481450497 29.897832926810047 0 0 0
2744 1 29.072621658385884 25.323955492211393 27.581125651347104 0 0 0
3102 1 28.35459800692794 23.81106383439677 29.78723277642344 0 0 0
3142 1 28.21217191975136 26.81505562857829 29.79163899441068 0 0 0
3145 1 30.802981508485022 25.365334916096838 29.831714771505453 0 0 0
2707 1 31.687415002229013 23.896739772332175 27.68214847889268 0 0 0
3106 1 33.473262570023905 23.804341662363537 29.89646653756366 0 0 0
3146 1 33.30738030788953 26.858270356869742 29.720885624346277 0 0 0
2747 1 31.57093224171295 26.908801664984814 27.548695178857237 0 0 0
2748 1 34.15181919105177 25.42383229717659 27.58968709540032 0 0 0
2711 1 36.8965914652658 23.793401963369476 27.759371921990848 0 0 0
3149 1 35.91937200102227 25.35152143327834 29.78950201820534 0 0 0
2751 1 36.87854415737769 26.9193542489948 27.602218519313062 0 0 0
3110 1 38.58486369722449 23.787625121045853 29.999957467592896 0 0 0
2752 1 39.46181917486497 25.397386418429274 27.622861432142773 0 0 0
3150 1 38.40283794263466 26.8583002622116 29.956415493061712 0 0 0
3153 1 41.1460895033526 25.350251888248525 29.897902310801097 0 0 0
2715 1 42.02548067859516 23.813816975382867 27.82040752992432 0 0 0
3154 1 43.7800085867964 26.90732075947787 29.846872166220514 0 0 0
3114 1 43.51755778251004 23.73768539911231 30.03859553687316 0 0 0
2756 1 44.435764250243935 25.35410855851591 27.769210761265846 0 0 0
2755 1 41.84326415194211 26.98912461481243 27.55405372154588 0 0 0
2759 1 47.22344178267561 26.85711193689061 27.711402752410756 0 0 0
2719 1 47.06214132856306 23.679564792227403 27.9524721887581 0 0 0
3157 1 46.288911930264874 25.310563374290396 29.960391745611826 0 0 0
2760 1 49.90567947516978 25.133722778373784 27.914452823278644 0 0 0
3118 1 48.82578101675513 23.72272869497358 30.033429733591536 0 0 0
3158 1 48.9536432796357 26.762561357794933 29.884213367814937 0 0 0
3162 1 2.200359984081343 29.605707135901348 29.91366809647073 0 0 0
2763 1 0.4382486666752813 29.677406371445464 27.59067927228935 0 0 0
2764 1 2.7656975914364113 28.26915260528817 27.57853576554937 0 0 0
3165 1 4.7191533054843715 28.161851340233603 29.937900601141745 0 0 0
2767 1 5.529535436650874 29.77548378276834 27.449113263289284 0 0 0
2768 1 8.15431783038931 28.29595035087069 27.691244778087043 0 0 0
3166 1 7.201516205851862 29.839016703427355 29.914311465894034 0 0 0
3169 1 9.934687348088296 28.234627830734354 30.01665364278294 0 0 0
2771 1 10.723412562046883 29.715962830760823 27.550102717998858 0 0 0
3170 1 12.642925820688184 29.767700479496895 29.747149819817977 0 0 0
2772 1 13.431548833110126 28.506354338378735 27.493015748679692 0 0 0
2775 1 16.17180945769065 29.884029922623277 27.53293169600794 0 0 0
3173 1 15.124235993093654 28.352198993205597 29.85504132395811 0 0 0
2776 1 18.74303241260153 28.376977540816547 27.562295816661543 0 0 0
3174 1 17.86801354887901 29.73441117148858 29.815537234061058 0 0 0
3177 1 20.503450595286186 28.30024965185772 29.879348976221223 0 0 0
2779 1 21.300879095292974 29.92017503132437 27.431501295411532 0 0 0
3178 1 23.008009734150043 29.86919966257176 29.774027794497783 0 0 0
2743 1 26.48942438936279 27.01105917769227 27.38498723446365 0 0 0
2780 1 23.89667086099659 28.357625961908163 27.379837213537815 0 0 0
3181 1 25.717226384890186 28.34898866682139 29.693203837098558 0 0 0
2783 1 26.44341539802053 30.040343715123463 27.53146862178112 0 0 0
2784 1 29.073035717049425 28.43776863456297 27.41712663362523 0 0 0
3182 1 28.228567898059115 29.819751211670066 29.721279351066677 0 0 0
3185 1 30.620331025227507 28.308725264484842 29.690005539699072 0 0 0
3186 1 33.1662930679953 29.778094014294425 29.905806417852915 0 0 0
2787 1 31.527685284807564 29.861100061404017 27.597361721252796 0 0 0
2788 1 34.22962876298456 28.473466779044372 27.514835030640814 0 0 0
2791 1 36.79758825542946 29.911057907601602 27.444057237758983 0 0 0
3189 1 35.90906034383505 28.430173707318254 29.679913175885737 0 0 0
3190 1 38.599648828024385 29.9539678612393 29.76983696527714 0 0 0
2792 1 39.35085253723757 28.362384662809134 27.67058392509297 0 0 0
3193 1 40.9612748852945 28.432359993088916 29.95402040596349 0 0 0
3194 1 43.58652765473225 30.069729096713345 29.676081981824314 0 0 0
2795 1 41.866209639419594 30.122915977124023 27.350900780277268 0 0 0
2796 1 44.46075344578904 28.484456079036917 27.391459171333363 0 0 0
3197 1 46.225303149987184 28.411556108005918 29.75713588679439 0 0 0
2799 1 47.13291469185812 29.86184184766941 27.589986490398413 0 0 0
3161 1 51.56553504915151 28.14158331056378 29.97212827117587 -1 0 0
2800 1 49.80829542767226 28.21229566065837 27.61605963458782 0 0 0
3198 1 49.048837762253 29.732549898734113 29.860185185913828 0 0 0
2802 1 2.101994580916387 32.62994961871203 29.746030723666944 0 -1 0
2404 1 2.9173639706012873 31.285250472642673 27.374927060475628 0 -1 0
2403 1 0.3668949869000776 32.42735331266948 27.707922158617972 0 -1 0
2405 1 5.573541456951524 32.62632062809052 27.44272831025367 0 -1 0
2805 1 4.570257022180994 31.051993063594686 29.764662787839484 0 -1 0
2408 1 8.097108768915522 31.194558383347236 27.357237834240937 0 -1 0
2806 1 7.210957303294691 32.703214213250874 29.803482450874156 0 -1 0
2809 1 9.924641198149917 31.173391186650754 29.76025405746826 0 -1 0
2411 1 10.649095009417785 32.68556258309143 27.458846480524432 0 -1 0
2810 1 12.340251542532497 32.69807262905488 29.83160326369317 0 -1 0
2412 1 13.48111058185137 31.256985788505297 27.47613755407066 0 -1 0
2415 1 16.1724685673412 33.3203526235421 27.262783262525637 0 -1 0
2813 1 15.259235439810958 31.31450669576926 29.724826834136238 0 -1 0
2814 1 17.88032966241322 32.82669826068364 29.54563050326007 0 -1 0
2416 1 18.592045317501174 31.470786255102432 27.20977361176271 0 -1 0
2817 1 20.346753861286658 31.379080989701265 29.737760841654108 0 -1 0
2419 1 21.414830417524417 32.82211090965983 27.322128948997094 0 -1 0
2818 1 23.051734916112707 32.83536806022342 29.70975061938392 0 -1 0
2420 1 23.965508456622928 31.361268782904332 27.30341275598081 0 -1 0
2821 1 25.60691754574678 31.32451716011954 29.684966011088832 0 -1 0
2423 1 26.6449338617117 32.919711283642336 27.274979210413143 0 -1 0
2822 1 28.218566934105286 32.90936957461943 29.67323499961433 0 -1 0
2424 1 29.14676159380155 31.428665508819954 27.219231569058877 0 -1 0
2825 1 30.744723061683043 31.407706212414936 29.937823426091 0 -1 0
2826 1 33.22932120942653 32.969108734537116 29.820241133223707 0 -1 0
2427 1 31.6035827780759 32.63473828529603 27.2807372913632 0 -1 0
2428 1 34.32314896852688 31.472341460755686 27.51576923739373 0 -1 0
2829 1 35.96973719872123 31.232330346826167 29.73677152107604 0 -1 0
2429 1 36.982761447331484 33.04055316999467 27.26342193777438 0 -1 0
2830 1 38.6309014509239 32.84472244239021 29.457356927880753 0 -1 0
2432 1 39.27399364293228 31.367126974258987 27.311085884715705 0 -1 0
2833 1 40.94622899599413 31.592796881947685 29.775737501244475 0 -1 0
2834 1 43.65417455252208 32.99822752446154 29.771253889880107 0 -1 0
2433 1 42.25128885969927 33.22737955685383 27.376551114863332 0 -1 0
2436 1 44.537059077077174 31.481511692738806 27.432109567935342 0 -1 0
2439 1 47.156073846348264 32.89158984697874 27.41676571351317 0 -1 0
2837 1 46.281872223660926 31.412961985594322 29.689793241162075 0 -1 0
2801 1 51.57310893912036 31.186938397234456 29.939698617509247 -1 -1 0
2440 1 49.828276361694876 31.24686960351731 27.613202468868362 0 -1 0
2838 1 48.923258872002805 32.91476048095436 29.69727634104391 0 -1 0
2843 1 0.23667733050846784 -2.9715794875718116 32.200033983807145 0 0 0
3242 1 2.942255041173488 -1.744295940719193 32.32195739840078 0 0 0
3245 1 5.509459957268906 -3.077385548324326 32.0574277855827 0 0 0
3206 1 8.165633687186075 -4.272528355379726 32.04909807272472 0 0 0
3249 1 8.467597208229504 -1.5583791330004622 32.0437736796143 0 0 0
3210 1 10.765473048370541 -3.0780480076474728 32.07983857719209 0 0 0
3215 1 16.050239300776678 -3.1555092688109583 32.13091341091267 0 0 0
3213 1 13.444093252108953 -4.470748497114934 31.981819226086333 0 0 0
3252 1 13.422390508636143 -1.6512112166031012 32.20008975573637 0 0 0
3254 1 18.71536092218129 -1.6908761953594214 32.298337469743906 0 0 0
3257 1 21.262785052434367 -2.968822939716215 32.03177000828761 0 0 0
3261 1 23.895171319577692 -4.384210762468262 32.001255194210806 0 0 0
2864 1 26.56285644806643 -2.8548697960521823 32.02703400704119 0 0 0
2463 1 23.86553741654823 -1.341718534653753 32.08856217281683 0 0 0
2867 1 29.369493486584535 -4.359500180671151 31.93829558550179 0 0 0
2905 1 29.59086979999401 -1.484354456031563 31.696845436111214 0 0 0
2866 1 32.0844771345574 -2.747806077119833 31.795142433999388 0 0 0
2868 1 34.371520083695486 -4.278303990278829 31.912847051448356 0 0 0
2468 1 36.74075429689884 -2.7605775897611453 31.875943905330566 0 0 0
2869 1 39.42928322477421 -4.283357417260831 31.896279427164906 0 0 0
2430 1 39.259355640569794 -1.5261851825307633 31.09265939140094 0 0 0
2873 1 42.092716562952305 -2.4393523124216463 32.12649293663206 0 0 0
2876 1 44.674931790736096 -4.229005793567047 32.09323259434495 0 0 0
2476 1 47.30151408710107 -2.6472884806597428 31.985051726842393 0 0 0
2475 1 45.0428371590197 -1.0068609154572674 31.978288342726035 0 0 0
2920 1 49.858900279838394 -1.229012854975558 31.935445843817867 0 0 0
2880 1 49.820734911080294 -4.378700054045099 32.068699128347106 0 0 0
2443 1 0.3652082414866389 -0.17284876984035868 32.32380738927155 0 0 0
2847 1 3.229457664417911 0.983707043362009 32.52660671392377 0 0 0
2848 1 5.852384178112539 -0.23415891288773505 31.59871197199104 0 0 0
3289 1 8.319168175884778 1.2107063736613233 32.350821771321215 0 0 0
3250 1 10.897001038366444 -0.1897652668650993 32.171650991563475 0 0 0
3293 1 13.513718029029121 1.1235029516731156 32.44486315783867 0 0 0
3255 1 15.982012706045506 -0.23516875371058177 32.60271951434731 0 0 0
3297 1 18.587094334384943 1.2136238888376516 32.573424831730684 0 0 0
3258 1 21.114156537602 -0.13659022610652105 32.242352216125994 0 0 0
3301 1 23.554112335309988 1.4716766807175414 32.28605242189449 0 0 0
2502 1 26.40254157268377 2.4808205786692046 32.59154193607665 0 0 0
2863 1 27.435005656217704 -0.030618979323037365 31.2086510021173 0 0 0
2467 1 30.386389962724895 1.5521034848364037 30.911454322347865 0 0 0
2466 1 31.82044678019874 -0.14657358108337704 32.389996079562984 0 0 0
2506 1 33.17344637876319 2.376690333560272 30.829793182708357 0 0 0
2908 1 34.444786946929625 -0.7873072736492226 31.815376097350285 0 0 0
2108 1 35.75467139845338 1.6341119900017471 31.315544534705705 0 0 0
2471 1 37.324231710995605 -0.15221074095406628 32.74965601825246 0 0 0
2472 1 40.053151119942214 0.09219771649007491 32.993016992127224 0 0 0
2470 1 38.97147767619245 1.5890907190979027 30.779655593108114 0 0 0
2912 1 42.900568999384674 0.6370774549136975 32.80198996836304 0 0 0
2473 1 41.41016340527307 0.019559648402023733 30.75702445248965 0 0 0
2917 1 45.38293357127921 1.8882252671505162 32.570133431952286 0 0 0
3317 1 47.542885888759756 0.4315248184671452 32.65329668407017 0 0 0
3320 1 50.049744815083784 1.8080534462160402 32.54636695857366 0 0 0
2487 1 1.812539734057668 5.096581389525889 30.729744346249312 0 0 0
2884 1 0.8397087696097312 2.715321134827332 32.26925006373129 0 0 0
3285 1 3.445869415483536 3.792133879598163 32.589802332319984 0 0 0
2888 1 5.975279265888438 2.697163453856543 31.947645590950945 0 0 0
3288 1 5.8111577775738406 5.66186443865651 32.5448153292155 0 0 0
3291 1 8.534587245248023 4.16694420379252 32.69074610157683 0 0 0
3290 1 10.927415584275394 5.645256429685425 32.62581633653803 0 0 0
2892 1 10.874008847046225 2.6675365333494296 32.42477221599317 0 0 0
2893 1 13.516821900238446 4.226079663622889 32.54075882108382 0 0 0
2895 1 16.113710256125376 5.626603482015941 32.75620926890558 0 0 0
3294 1 16.100833251281532 2.709486002764338 32.6071865641738 0 0 0
2894 1 17.73453651042459 2.8296665052052434 30.45609851331729 0 0 0
2899 1 18.660362608073147 4.281772926592041 32.604414141126526 0 0 0
2898 1 23.077908511887046 5.845165313992133 30.593229767872753 0 0 0
3298 1 21.136661325680937 2.8825869567453086 32.65249116901586 0 0 0
3340 1 21.32730314539734 5.669293892398537 32.59976198810144 0 0 0
2903 1 23.671825827361857 4.200999438238494 32.687121856023694 0 0 0
2503 1 25.475986479854072 4.081523197683323 30.57513549978254 0 0 0
3302 1 26.44365874488543 5.5452924734181614 32.569798797191126 0 0 0
2507 1 28.146392367589605 5.613300994223522 30.442319011800755 0 0 0
2505 1 30.6187503641368 4.268605205851367 30.64536730426174 0 0 0
2907 1 29.015709131560815 3.9419298092098014 32.84466565187443 0 0 0
2548 1 33.251514434786415 5.332936928123575 30.698096872926264 0 0 0
2948 1 31.570670720119946 2.7910643622213867 32.89383578064038 0 0 0
3348 1 31.54686642299411 5.543517709147965 32.79932426946386 0 0 0
2549 1 35.831069506916066 4.166612560240209 30.686370018575914 0 0 0
2508 1 34.26814937942554 4.054119425350377 32.943051051616614 0 0 0
2511 1 36.807358421047326 5.7891344913874985 32.74503006273258 0 0 0
2909 1 37.66270789945406 3.197821651886507 32.57903433639008 0 0 0
2512 1 40.697394578805856 2.94157290310223 32.99749847212758 0 0 0
2509 1 38.24828844980841 5.450424164826346 30.65210145888285 0 0 0
2513 1 40.671335257420026 4.339925147394027 30.613777191713236 0 0 0
2514 1 43.515499812248166 5.497424050887357 30.62339990897262 0 0 0
2515 1 43.073204257133256 3.0454966138970248 31.589104260778157 0 0 0
2953 1 41.820318025229795 5.489730425390512 32.860813224468835 0 0 0
2517 1 45.93046654230629 3.8529359708122897 30.48135498920202 0 0 0
2516 1 45.204363359001874 4.649721403004655 32.80094096741057 0 0 0
2957 1 47.652433859392644 3.3463366312537177 32.674768705199384 0 0 0
2483 1 51.18250290972888 4.164755083677218 30.973154408712738 -1 0 0
2518 1 48.59950974023987 5.224799476487625 30.87858631100392 0 0 0
2883 1 0.5738666521748743 8.251781627479614 32.70038430950077 0 0 0
2924 1 2.1145306429945743 8.46555446000397 30.442551027293216 0 0 0
2482 1 -0.40212470181728577 6.863358079185824 30.54924970276316 0 0 0
3282 1 3.2025902070372645 6.973164168996515 32.474359920258415 0 0 0
3286 1 5.681832453521595 8.607924213780795 32.52299182204058 0 0 0
3329 1 8.378440479046041 7.055063566530121 32.47031097186776 0 0 0
3330 1 10.969446318619838 8.599349249123549 32.58757591979143 0 0 0
2972 1 13.644996180016989 7.139258074653071 32.705052775352286 0 0 0
3334 1 16.083673862591827 8.688167806988755 32.601027406052964 0 0 0
2936 1 18.684281059041265 7.198611725492311 32.64173216183539 0 0 0
2540 1 20.32318036189991 7.233782505660834 30.49758632079291 0 0 0
3337 1 21.22168497943248 8.70391560431895 32.71344080789603 0 0 0
3341 1 22.963330250483576 8.669668356238695 30.44571509903136 0 0 0
3303 1 23.926815507385783 7.182798910842312 32.71096610986517 0 0 0
3343 1 26.390775978307104 8.536508412471578 32.640578481696274 0 0 0
2902 1 25.599077290702706 7.15853898696278 30.46401034795288 0 0 0
2944 1 28.90376489524532 7.16682707149681 32.66474155971192 0 0 0
2544 1 28.157209013055997 8.674600484523829 30.496018411143652 0 0 0
2545 1 30.663667240615258 7.1544943688051585 30.51290394534267 0 0 0
3346 1 31.637167218849672 8.725956218151369 32.64612257531746 0 0 0
3351 1 34.10769659672182 7.066991230710714 32.84840132567498 0 0 0
2546 1 33.341161052974286 8.521230340231229 30.53364126635352 0 0 0
2949 1 36.74009614000862 8.588749134710056 32.7582244181926 0 0 0
2551 1 35.89778293122721 7.160157691499062 30.65763812680925 0 0 0
2552 1 39.41521074732256 7.145634058271392 32.6756247659104 0 0 0
2550 1 38.33590597565542 8.547115898049649 30.528808194577966 0 0 0
2510 1 41.18907659254408 7.177197191826652 30.602346671033406 0 0 0
2956 1 41.994143661512936 8.615462063538462 32.61208342532758 0 0 0
2519 1 44.42393318948652 7.29006448874612 32.82788233072181 0 0 0
2560 1 47.39899211060788 8.450740158288312 32.52486903008622 0 0 0
2558 1 46.1691621442466 6.852438024560801 30.632954854170215 0 0 0
2881 1 50.104568956132724 6.8014622700682175 32.672604419093105 -1 0 0
2521 1 49.06718711083499 8.286897784152453 30.57189761966849 -1 0 0
2923 1 0.472411590273243 11.470243191476344 32.58775597007625 0 0 0
2922 1 2.2496819255998126 11.467619603115079 30.492488127276918 0 0 0
3322 1 3.2635002060797147 9.909996884803876 32.62988684185581 0 0 0
2968 1 5.651940916484781 11.599854420112184 32.56068173807581 0 0 0
3326 1 8.284969145130717 10.198319403898669 32.66693801391701 0 0 0
2931 1 10.870732330804007 11.547627445973937 32.5490295391968 0 0 0
3373 1 13.522388207746367 10.223442814474806 32.51666563421793 0 0 0
2934 1 16.024221124880842 11.661015189031794 32.493634800981155 0 0 0
2939 1 18.605485956791703 10.246770242310813 32.385614872223826 0 0 0
3377 1 21.354218010095785 11.775721084238874 32.454653505240444 0 0 0
3381 1 26.423697340995172 11.586358169752987 32.53164446414118 0 0 0
3338 1 23.99331788765109 10.23928647834147 32.45125407121936 0 0 0
3342 1 28.97456797881208 10.283418723834266 32.58158266731034 0 0 0
2951 1 34.21818379326545 10.098605312610887 32.72210146638356 0 0 0
2947 1 31.68168281175289 11.760732430517514 32.57672207076658 0 0 0
3350 1 36.841280799202465 11.532240515536522 32.6074774410996 0 0 0
2952 1 39.435281089271484 10.154375137085724 32.67070462206843 0 0 0
2955 1 41.98893997428273 11.56393746380257 32.69977949616553 0 0 0
2954 1 44.47697941383886 10.11808810813308 32.572969625705944 0 0 0
2959 1 47.29693434957241 11.406433827988321 32.408238981112696 0 0 0
2960 1 49.82995473727067 9.850644994431372 32.57255257669535 0 0 0
2963 1 0.3570183621721237 14.6110275139974 32.48006074539356 0 0 0
3004 1 2.8712220785427562 16.150988638221513 32.44866552101664 0 0 0
2967 1 5.649394483854349 14.706882980182453 32.492246350040226 0 0 0
2964 1 3.0928618392116793 13.172612968237566 32.40297177843739 0 0 0
3008 1 8.337184245215068 16.157055063095157 32.40993556890754 0 0 0
3369 1 8.343324640866818 13.148830933766863 32.52331329375527 0 0 0
2971 1 10.810211536252956 14.546488245039694 32.55526865292262 0 0 0
3370 1 13.35509966553852 13.172143210406624 32.517647109076385 0 0 0
3012 1 13.427395628694981 16.222250808109827 32.498398357203484 0 0 0
2975 1 16.069695455704693 14.626865320646626 32.5406585461736 0 0 0
2976 1 18.652794787775345 13.280321469520995 32.4730158050222 0 0 0
3016 1 18.619332743651444 16.26557583870864 32.41144880769294 0 0 0
2979 1 21.338803608471604 14.755254506095582 32.3826713222618 0 0 0
2980 1 23.886893121650196 13.312063932320083 32.410310417156076 0 0 0
2983 1 26.4614899800225 14.727395221596968 32.434625795428246 0 0 0
3020 1 23.964680355162987 16.315089395765217 32.3515032814293 0 0 0
2984 1 29.048895219243036 13.175702849438984 32.45247859943287 0 0 0
3024 1 29.08932442622768 16.36037438832274 32.31055061797136 0 0 0
2987 1 31.695904541482488 14.793141621549022 32.49422749545189 0 0 0
3028 1 34.341900800974514 16.234121755150007 32.33940111822906 0 0 0
2988 1 34.313992985827184 13.125005707604892 32.44536325308347 0 0 0
2991 1 36.86265220179273 14.616057318342293 32.441536092490885 0 0 0
2992 1 39.39822278376273 13.13394393697158 32.50197211874273 0 0 0
3032 1 39.36350931905983 16.11331440430698 32.504578881926115 0 0 0
2995 1 41.98509137764022 14.63160817802125 32.59188304640867 0 0 0
3036 1 44.48582416008068 16.07336650302283 32.47588376264849 0 0 0
2996 1 44.448826971769165 13.074845754972408 32.64017207733932 0 0 0
2999 1 47.226057520961604 14.522372562201674 32.57876394762479 0 0 0
3000 1 49.805040874729016 13.068641349159108 32.518769732114556 0 0 0
3040 1 49.78069123662581 16.097965841507346 32.530583998532784 0 0 0
3003 1 0.3708844424140011 17.553893465222465 32.429481795770926 0 0 0
3044 1 2.8863946833087644 19.21242994077303 32.39328400681751 0 0 0
3007 1 5.730759223036731 17.661246241609643 32.356666342770495 0 0 0
3048 1 8.247827272201564 19.14162896599717 32.482324955926565 0 0 0
3011 1 10.765312650704699 17.744867166293933 32.47819796894088 0 0 0
3052 1 13.435684608224527 19.231781583878952 32.38922368936855 0 0 0
3015 1 16.095086358323794 17.76085528352954 32.511214865996934 0 0 0
3056 1 18.635470177951216 19.326555531393794 32.3894338839806 0 0 0
3019 1 21.23094776710122 17.71788809695253 32.26009461278449 0 0 0
3060 1 23.804512322733324 19.20189850333656 32.25554515409803 0 0 0
3023 1 26.47619216095167 17.66768670956191 32.3097269299053 0 0 0
3064 1 29.05647809683169 19.19943997357502 32.29874811732811 0 0 0
3027 1 31.73157658414161 17.684323863067092 32.40579621593534 0 0 0
3068 1 34.230448967062145 19.188619891972877 32.29663928949834 0 0 0
3031 1 36.85682799401535 17.750591395017704 32.41526771914611 0 0 0
3072 1 39.397401310063046 19.033883537726165 32.37009679977461 0 0 0
3035 1 41.97922109960908 17.614338925178288 32.34067762333655 0 0 0
3076 1 44.52820569758242 19.102285819122905 32.38775616518791 0 0 0
3039 1 47.2153619855267 17.650426442224035 32.34465218305151 0 0 0
3080 1 49.791876820948474 19.102735671270676 32.328103535646 0 0 0
3043 1 0.33794028728432 20.557555409781827 32.32585904369799 0 0 0
3084 1 2.9004874587726963 22.2321353557867 32.23987245154615 0 0 0
3047 1 5.697199661965966 20.553679784510127 32.35384178824753 0 0 0
3088 1 8.156866107518015 22.18374007099916 32.37294754667234 0 0 0
3051 1 10.832279830067549 20.641635464052303 32.352689692047015 0 0 0
3092 1 13.30413148983324 22.225344968925878 32.229226925977386 0 0 0
3055 1 15.999242286254574 20.801704018618683 32.34583477179018 0 0 0
3096 1 18.687746280474812 22.272396638040345 32.23415690161707 0 0 0
3059 1 21.300086841477935 20.8584963222141 32.259138928986815 0 0 0
3100 1 24.00107006915271 22.42796658626972 32.07494315957064 0 0 0
3063 1 26.604832020103068 20.91507640024795 32.12147665981093 0 0 0
3104 1 29.18996175229538 22.26420840347841 32.094069396043224 0 0 0
3067 1 31.623131326530444 20.752313373005013 32.219684762237264 0 0 0
3108 1 34.273370943673555 22.183299290893906 32.22868337402724 0 0 0
3071 1 36.79385223976651 20.79011189783108 32.3162821434749 0 0 0
3112 1 39.41602869450141 22.186052443647004 32.38569906788271 0 0 0
3075 1 41.97405720786621 20.677933620656784 32.521503866713054 0 0 0
3116 1 44.52600778328788 22.113841759884888 32.35303651264852 0 0 0
3079 1 47.096371696999384 20.76115634263088 32.32120169343869 0 0 0
3120 1 49.72060643249108 22.11192336613341 32.22635789357904 0 0 0
3083 1 0.3824468179321887 23.75277685663219 32.17287570720289 0 0 0
3123 1 0.44004662372873804 26.60671764360951 32.26776215045911 0 0 0
3124 1 3.121120545634394 25.262751034442722 32.30441731366279 0 0 0
3087 1 5.511114065797241 23.648131277950586 32.38054244853166 0 0 0
3127 1 5.64006915413861 26.62890890361272 32.13408777725477 0 0 0
3128 1 8.202496131249726 25.06732319305551 32.170033360125935 0 0 0
3091 1 10.910553788483483 23.88152287717525 32.21499731915108 0 0 0
3131 1 10.852866592295948 26.751740743517733 32.17340501283324 0 0 0
3132 1 13.386845440063846 25.328632661055476 32.20446860149491 0 0 0
3095 1 16.037060018674296 23.758013084607875 32.19582185944435 0 0 0
3135 1 16.038421493767263 26.689837612521806 32.09688061903526 0 0 0
3136 1 18.660804406324903 25.313520019030495 32.24577164588486 0 0 0
3099 1 21.226152647808057 23.87783027387707 31.985303464845856 0 0 0
3139 1 21.345376456753183 26.82793175656322 32.048121866425504 0 0 0
3140 1 23.931939543859784 25.320056432334695 32.08132088700551 0 0 0
3103 1 26.706934424343366 23.760855195127387 32.11120142098751 0 0 0
3143 1 26.508127259601107 26.751160390411247 32.059047622932404 0 0 0
3144 1 29.142559685976703 25.36110877465692 31.986577965846358 0 0 0
3107 1 31.757973202747724 23.75330390703594 32.11525110531705 0 0 0
3147 1 31.641067408595394 26.76447424982683 32.10345680364575 0 0 0
3148 1 34.21851881467147 25.25539149708903 32.00121186555474 0 0 0
3111 1 36.744494776416204 23.677830808644206 32.15846508241459 0 0 0
3151 1 36.6971812187858 26.835594290317477 32.150776077555975 0 0 0
3152 1 39.42319549074985 25.172086665831866 32.07044941210636 0 0 0
3155 1 42.0448925995464 26.808016261146914 32.06887360928943 0 0 0
3115 1 42.04089724293563 23.684742971427642 32.31953666703844 0 0 0
3156 1 44.51433115390475 25.29493431203903 32.11318139057261 0 0 0
3119 1 47.12279762228883 23.65505223781934 32.16496873571784 0 0 0
3159 1 47.18959285341887 26.83234920277977 32.12773706412039 0 0 0
3160 1 49.81216255134292 25.216102738543235 32.20510375846206 0 0 0
3163 1 0.37214277786751493 29.67301503590658 32.221419202513765 0 0 0
3164 1 2.994039596808891 28.158204869522393 32.20895346775726 0 0 0
3167 1 5.612889977351995 29.557421154083762 32.25839887764098 0 0 0
3168 1 8.107470718381045 28.228844926656187 32.176811835940555 0 0 0
3171 1 10.816121223638126 29.759234380315746 32.05238397506797 0 0 0
3172 1 13.509928769434381 28.083271634881044 32.03731310290141 0 0 0
3175 1 16.087841302216958 29.686701993871665 32.047757427023384 0 0 0
3176 1 18.5554062161938 28.094916455603418 32.09868855746856 0 0 0
3179 1 21.42995183560739 29.760444943736758 32.11725874787081 0 0 0
3180 1 23.989578102993356 28.297912510688477 32.01173244114931 0 0 0
3183 1 26.442748266296448 29.88611535900943 32.02063076845367 0 0 0
3184 1 28.99108606692297 28.29462586845583 32.122613611754375 0 0 0
3187 1 31.55079132878131 29.724513547488677 32.077618207266354 0 0 0
3188 1 34.23297480404493 28.279748517731328 32.03528156407725 0 0 0
3191 1 36.72273599784924 29.715924111553868 32.08008279930494 0 0 0
3192 1 39.27586850698631 28.22285343476895 32.11674470336147 0 0 0
3195 1 42.031576088020145 29.98382127114919 32.00504412858325 0 0 0
3196 1 44.62647605531808 28.328149807029817 32.06169884521834 0 0 0
3199 1 47.13418645374912 29.857117281052318 32.03689055930561 0 0 0
3200 1 49.90065710265287 28.05505579816704 32.20208900909287 0 0 0
2803 1 0.4070744942237726 32.7152407593322 32.138506669219566 0 -1 0
2844 1 2.9945403585049055 33.97411418742591 32.1845640103758 0 -1 0
2804 1 3.0117547675096317 31.127816452030025 32.190563095872776 0 -1 0
3205 1 5.6487808423696215 32.64860320435256 32.098111110939726 0 -1 0
2808 1 8.224075388676681 31.222227586257304 32.083028130256764 0 -1 0
2811 1 10.792457051057973 32.66280378303186 32.048787532328845 0 -1 0
2812 1 13.535819964717486 31.046117747452946 31.961457348306983 0 -1 0
3575 1 16.216922853047222 32.564714441579724 31.971491972256658 0 0 0
3214 1 18.714524619480336 33.902925559181774 32.00648850151303 0 -1 0
2816 1 18.702588386452657 31.18361762150827 32.037610422991634 0 -1 0
2819 1 21.222616825551068 32.56328354381266 32.17082885521394 0 -1 0
2820 1 23.93019512992335 31.264953842319024 32.06949902668001 0 -1 0
2823 1 26.579508966009048 32.700140969399 31.984327673474404 0 -1 0
2824 1 29.097195641438738 31.215410867300072 32.09541556742296 0 -1 0
2827 1 31.73781466415532 32.836017386007924 32.13004944634577 0 -1 0
2828 1 34.212480475680096 31.229455473218934 32.03952603427033 0 -1 0
2831 1 36.772944718846006 32.68142875909273 31.963084407141633 0 -1 0
2832 1 39.35139446965658 31.319193634084463 31.935186936803134 0 -1 0
2835 1 42.05663925955277 32.906141248913286 31.970445378357848 0 -1 0
2836 1 44.63438958287398 31.324625996139822 32.02408677436725 0 -1 0
2839 1 47.18945410158966 32.75341232133022 31.987145769778696 0 -1 0
2840 1 49.82666397859357 31.122730172737207 32.18045023691454 0 -1 0
3602 1 0.4380639936416687 -3.173609270488698 36.86251022247626 0 0 0
3244 1 2.222268528062626 -3.159819296390693 34.70685696970648 0 0 0
3243 1 -0.379585764161959 -1.696520517402556 34.48777243133718 0 0 0
3207 1 4.695114360437919 -4.455345997927267 34.38319780187643 0 0 0
3644 1 3.1732816723694355 -1.7268166920385255 36.869100675574586 0 0 0
3607 1 5.522849161537382 -3.268755294561748 36.70526095752172 0 0 0
3247 1 4.823978537347364 -1.49671322684949 34.358867570407185 0 0 0
3648 1 8.303029234976743 -1.779228045983566 36.74422496207408 0 0 0
3606 1 7.217610757312783 -3.068610345210311 34.39459682109301 0 0 0
3211 1 9.89145460758953 -1.7229436968268126 34.459259986455116 0 0 0
3212 1 12.434530340703372 -3.1839659589933307 34.41586489700038 0 0 0
3611 1 10.952802824213439 -3.1978489897857663 36.79107255476635 0 0 0
3610 1 13.38096457846531 -1.9341962189605986 36.81915591364301 0 0 0
3615 1 16.208297892591695 -3.424031844259635 36.73747222617965 0 0 0
3653 1 15.103849866337784 -1.9235163385455012 34.617985129122616 0 0 0
3256 1 17.82517992530226 -3.1971261108134756 34.44866474489835 0 0 0
3657 1 18.786305496065832 -1.8652136267801884 36.834019621313786 0 0 0
3259 1 20.364934143055915 -1.580265516573459 34.493342022626386 0 0 0
3617 1 21.372475787574654 -3.238155821241728 36.65718991718859 0 0 0
3219 1 22.986235612695207 -3.0960442409069513 34.38962091133617 0 0 0
3661 1 23.700927069643797 -1.7102473334019845 36.83295637255627 0 0 0
3223 1 25.748788517903808 -4.499934480943331 34.424906456021326 0 0 0
3262 1 25.459546781033684 -1.6749264559871433 34.566214076295864 0 0 0
3622 1 26.372399930807354 -3.0805416950052966 36.77046833015188 0 0 0
3264 1 28.245825511101064 -3.0096850319397044 34.31487556475868 0 0 0
3665 1 28.966302132732253 -2.193547242288691 36.65495457852278 0 0 0
3265 1 30.911502313963368 -4.382916983201689 34.32581184612001 0 0 0
3267 1 30.75674607175024 -1.3747939047614626 34.60668283612502 0 0 0
3266 1 33.37737349465941 -2.828230595184001 34.35602230114181 0 0 0
3666 1 31.844225567683342 -3.1416411992426134 36.68560411833405 0 0 0
3309 1 34.35209708599204 -1.7562931309451173 36.78965587216438 0 0 0
3268 1 35.97053998082079 -4.275066620318265 34.203413295510714 0 0 0
3669 1 37.12478485797958 -2.998668979517926 36.57159952353045 0 0 0
2871 1 35.86450517675969 -1.4849134214011568 34.44252620020129 0 0 0
3272 1 39.53160705755987 -4.453921353330404 36.653136068250426 0 0 0
3269 1 38.58374952305179 -2.4818224155993143 34.198858182864505 0 0 0
3271 1 39.65685671749958 -1.560664208402466 36.77458009951753 0 0 0
2872 1 40.97587386440523 -4.112803225562037 34.25037086966466 0 0 0
2874 1 43.893128782055086 -2.868744282971484 34.53489337304624 0 0 0
3673 1 42.02572542452555 -3.085591004503958 37.01627440309178 0 0 0
2870 1 41.5953288108379 -1.4842326988618062 34.63761971574713 0 0 0
2878 1 46.37872493528772 -4.4555928039850325 34.44819779423745 0 0 0
2879 1 46.58197413268084 -1.6528554399418751 34.4975593609588 0 0 0
3316 1 44.922176085447134 -1.5145533530955624 36.94094793375254 0 0 0
3279 1 47.33957415074404 -3.0836035916592595 36.778707179297726 0 0 0
3641 1 49.930332020251186 -1.7224135273256844 36.87248616226646 -1 0 0
3278 1 49.03886316400494 -3.0494295365324966 34.353596662422206 0 0 0
3284 1 2.2170576173082672 -0.345659150166715 34.67090663137502 0 0 0
3643 1 0.4737199227055394 -0.40618203647809814 36.96415145702155 0 0 0
3281 1 -0.2077961950151304 1.2139997373306741 34.6587448870619 0 0 0
3642 1 3.03924133323729 1.2103458475920146 36.81508542517228 0 0 0
3246 1 4.955754280060471 1.3237374417867427 34.437181146161876 0 0 0
3645 1 5.6034135933536655 -0.21702664788168136 36.75145771969278 0 0 0
3646 1 8.203060290739979 1.1660371960073679 36.89989991813883 0 0 0
3248 1 7.497362438250342 -0.2890236769854049 34.61080669290854 0 0 0
3251 1 10.033756803796258 1.0986224974410739 34.59655423040374 0 0 0
3649 1 10.921783811896303 -0.424234088426541 36.91533542658543 0 0 0
3650 1 12.441975290781217 -0.36823923104873035 34.588121542735266 0 0 0
3652 1 13.471541624840114 1.0394890060901272 36.87569244796547 0 0 0
3656 1 15.956137437879153 -0.6047890417480288 36.97026982209129 0 0 0
3693 1 15.12961576816023 1.1879085989013998 34.789859088555616 0 0 0
3696 1 18.49667023135247 0.9987969775099064 36.97947815882621 0 0 0
3654 1 17.626245822117806 -0.2871336337839132 34.73136688679981 0 0 0
3697 1 20.260853042180322 1.2241810579731434 34.68131277932403 0 0 0
3618 1 21.07875915497361 -0.33643839999148994 36.93303880586565 0 0 0
3260 1 22.93713061977368 -0.2520144904292225 34.535363949047486 0 0 0
3658 1 23.798195438164306 1.0306596501678982 36.91387407551851 0 0 0
3662 1 26.818708717137817 -0.10001502213910651 36.807897133186636 0 0 0
3263 1 25.527972082667805 1.0528251661595576 34.5642127062733 0 0 0
3305 1 28.004893300051126 2.2325789735154933 34.799184681964334 0 0 0
2904 1 27.86837518362625 -0.286488229057384 33.98985797889373 0 0 0
2906 1 30.633187707908675 1.3287990807734849 34.67932292420519 0 0 0
3664 1 31.449579429809148 -0.16043482507499363 37.00789207895174 0 0 0
3308 1 33.38624813677487 -0.04409029655061136 34.732754549542655 0 0 0
3709 1 34.37387903526968 1.1584940924066256 36.88769848547315 0 0 0
3671 1 37.05964767819991 -0.23567261641685988 36.666734994461166 0 0 0
3349 1 35.844361332225674 1.497346733584724 34.33724056241085 0 0 0
2911 1 38.55674154600169 2.2581229032779344 34.87008251187428 0 0 0
3670 1 39.59090760839938 1.1814498925161008 37.23785436661841 0 0 0
3310 1 41.28445691059423 1.2750324250768408 34.92016636104005 0 0 0
3275 1 42.250662067953954 -0.20218451238723478 37.12795412877748 0 0 0
3313 1 44.550211947600886 -0.11415445707967375 34.676610434634405 0 0 0
2916 1 44.80019388459236 1.3233423102899105 36.88657133312153 0 0 0
3717 1 47.32022586446861 -0.1727019549583968 36.77775549320528 0 0 0
3720 1 50.12443513421205 1.0306698309119904 36.97564540972743 0 0 0
3678 1 49.24174639758802 -0.2937705454168178 34.67610100204705 0 0 0
2882 1 -0.4054360109627879 4.138821813189406 34.4577089654815 0 0 0
3681 1 0.5031198950149672 2.5491907146269526 36.940701526653804 0 0 0
3685 1 2.2588167139887965 2.788496559874991 34.68333528661818 0 0 0
3683 1 0.5428429972438871 5.375029700464815 36.85276867955412 0 0 0
3682 1 1.9952212634367146 5.556699479727262 34.4752435500767 0 0 0
3684 1 3.084377809405877 4.122631749863325 36.90471179010405 0 0 0
3647 1 5.726378815816808 2.5879111864097997 36.92825983827097 0 0 0
3687 1 5.792050059942666 5.506843337358935 37.129409323165774 0 0 0
3686 1 5.0124558754563395 4.178488336939873 34.79918257614061 0 0 0
3688 1 8.363944799833222 4.043919547728979 37.05489670021271 0 0 0
3689 1 7.429372227188732 2.609054876343089 34.60985498953548 0 0 0
3729 1 7.572455522615272 5.560474890171125 34.845610039354675 0 0 0
3690 1 10.198351760274067 4.081125232284016 34.82707206632489 0 0 0
3292 1 12.667005597973342 2.669659999820828 34.637115504742916 0 0 0
3651 1 10.965639162895974 2.5764015503072972 36.86147082833178 0 0 0
3691 1 10.898606071878811 5.462174315722777 37.13237728030184 0 0 0
3333 1 12.713776178265022 5.755125410266423 35.05122833387503 0 0 0
3655 1 16.001810713120825 2.542167021090517 37.01171428641029 0 0 0
3692 1 13.639592133336183 4.107783190827069 37.03673612636966 0 0 0
3695 1 16.05524115577602 5.652015604535672 37.087897304116524 0 0 0
3295 1 15.28873809566384 4.17131616934112 34.851167457437526 0 0 0
3336 1 17.886423954760577 5.6788858959066015 34.87343613010874 0 0 0
3694 1 18.629713511838716 4.123888436214267 37.128473068818124 0 0 0
3296 1 17.842951948425714 2.740244242981129 34.80957969149102 0 0 0
3299 1 20.39037206934352 4.2976420059294576 34.885486025801114 0 0 0
3699 1 21.19202649697122 5.563884914599885 37.16912333995447 0 0 0
3698 1 22.940303322560148 5.575983503202153 34.91367245197341 0 0 0
3659 1 21.11358853657487 2.5257845759720876 37.13781654004806 0 0 0
3300 1 22.893652878761145 2.6495431774597877 34.891657332013835 0 0 0
3700 1 23.859361029748708 4.0552791681974725 37.001786776309956 0 0 0
3703 1 26.28815735071202 5.578648227005441 37.027048970727755 0 0 0
3304 1 25.566804940128772 4.076198797177533 34.644292853029945 0 0 0
3701 1 26.391251200733837 2.686590559206879 36.97974085606444 0 0 0
3702 1 28.91768385652261 4.0300978272207075 36.96168467128983 0 0 0
3344 1 28.103501344634555 5.702533956518476 34.95821606799482 0 0 0
3306 1 30.74736259653495 4.0911387590356085 34.97468892073257 0 0 0
3705 1 31.684439887338232 2.5937776496190708 37.15007761693922 0 0 0
3307 1 31.729761223172797 5.51379269407186 37.155065443660135 0 0 0
3706 1 33.422961845943775 2.765443387659557 35.037022374170895 0 0 0
3749 1 33.42170073076804 5.551482319258611 34.94926061395254 0 0 0
3708 1 34.498929630021905 4.1287257975582214 37.06470322641191 0 0 0
3711 1 36.90743625110646 5.638674971408097 37.25110931323409 0 0 0
3311 1 36.27649162474435 4.167048212911576 34.97467472864977 0 0 0
3710 1 36.87225570174887 2.5838697048044263 37.042382096017086 0 0 0
3753 1 39.454720259706036 4.170509799821108 37.2243307629755 0 0 0
2910 1 38.78185045256913 5.355949525351695 34.874265169871926 0 0 0
2915 1 41.41818243925752 4.09556745266695 35.06791963291013 0 0 0
3715 1 42.08758406670182 5.524247509389813 37.22668330129803 0 0 0
2914 1 43.85180645126606 5.649928216427634 34.965984256490735 0 0 0
3312 1 42.17760575639126 2.5773917068344963 37.27729782149703 0 0 0
2913 1 43.84762029293108 2.68818112610536 34.64131224404756 0 0 0
3315 1 44.69911106433145 4.0089589953790945 37.15484486963694 0 0 0
3716 1 47.32868965962557 5.544803405668112 37.01889927466211 0 0 0
2919 1 46.311418076327655 3.8323453654906725 34.941625936531096 0 0 0
3719 1 47.383263339584616 2.7179379045417447 37.05541421960703 0 0 0
3714 1 48.693072075060385 5.300176871853617 34.6025357439815 0 0 0
3718 1 49.973400260060274 3.9980085182813223 36.81147026487126 0 0 0
3318 1 48.92213361282174 2.5017337419196357 34.9280809336541 0 0 0
3721 1 0.43558330238871557 8.324161666212428 37.00059342310694 0 0 0
3324 1 2.1535337950735065 8.378836957329835 34.858772333129 0 0 0
3283 1 -0.40514021920071097 7.0077508320086395 34.872104049096784 0 0 0
3724 1 3.1286718696407125 6.909049511307874 37.00893473423466 0 0 0
3725 1 5.75057042133996 8.612193081417551 36.951648973656155 0 0 0
3287 1 4.82304674135395 7.034837479636398 34.813339230437755 0 0 0
3328 1 7.474541614425252 8.610804824998402 34.98305792012583 0 0 0
3728 1 8.288376098629259 7.014590291759021 37.11129983703043 0 0 0
3332 1 10.091582909609313 7.263011371972741 34.82223940675226 0 0 0
3731 1 10.878301752276252 8.60566191240148 37.16337659795316 0 0 0
3730 1 12.691116160000668 8.624591040298432 34.881016508440716 0 0 0
3732 1 13.519064680987947 7.068582231368726 37.27651889059698 0 0 0
3733 1 15.300973225483197 7.120480463881426 34.807623034400095 0 0 0
3735 1 16.21002255936771 8.557726616465358 37.069244125168396 0 0 0
3736 1 18.795720645326842 7.084223141367252 37.10818473148962 0 0 0
3734 1 17.901859136754844 8.589781069645214 34.75006404538498 0 0 0
3737 1 20.481581896224366 7.07730037719414 34.87061302881627 0 0 0
3739 1 21.283858825567112 8.56379601253535 37.066805541527046 0 0 0
3738 1 23.070569916086736 8.668157253053456 34.77464198320295 0 0 0
3740 1 23.788136729894564 7.068895764744568 37.057142645196606 0 0 0
3741 1 25.510525232315377 6.975684371802446 34.849656092979124 0 0 0
3743 1 26.387831657540104 8.513062017960426 37.01199164494481 0 0 0
3744 1 28.997068476160408 7.107873919547586 37.03513334861255 0 0 0
3742 1 28.10764011145054 8.554012851755923 34.82978736264466 0 0 0
3345 1 30.627705888395656 7.092944077953675 34.74895290221625 0 0 0
3746 1 33.338499384388 8.676111595835874 34.844785346791944 0 0 0
3745 1 31.670424127072447 8.494840148066059 36.95366280367589 0 0 0
3748 1 34.31952023572657 7.084909044010029 37.015517579533324 0 0 0
3750 1 36.0151000393637 7.055163120201463 34.92093250157214 0 0 0
3751 1 36.80453963184185 8.630523200926932 37.07500693931429 0 0 0
3752 1 39.3712666799228 7.24495852182095 37.12003985362985 0 0 0
3352 1 38.59891302692343 8.714141168392812 34.87411869044079 0 0 0
3314 1 41.138450743457426 7.011848418199895 34.9583553265901 0 0 0
3793 1 41.947553570098606 8.534104590480865 37.12788583941894 0 0 0
3353 1 43.760732181190775 8.48669606910702 34.92421718593763 0 0 0
3756 1 44.67664598252023 7.009726717078518 37.11772146016484 0 0 0
3356 1 46.33322330854267 6.905975178239551 34.7359224192153 0 0 0
3757 1 47.375390609984365 8.430752587779182 36.88098390518261 0 0 0
3760 1 49.93613333261301 6.863511751071366 36.951802274838386 0 0 0
3319 1 48.95690887887494 8.277021524070861 34.72415445070483 0 0 0
3364 1 2.3097353933026925 11.605383381591626 34.613989131796956 0 0 0
3323 1 0.4677173810678452 11.561353240783273 36.90337947338465 0 0 0
3722 1 3.059160762027269 10.062096768213571 36.919323611763964 0 0 0
3325 1 4.968220717748638 10.087695869710057 34.828239012713276 0 0 0
3327 1 5.791572309388485 11.610288540082038 37.1157992292223 0 0 0
3726 1 8.514904042724746 10.13138100909802 37.13406676382983 0 0 0
3368 1 7.445292734354803 11.596835900863773 34.79079137319635 0 0 0
3331 1 10.074018687723951 10.18280426066293 34.842986430752845 0 0 0
3372 1 12.579170172295852 11.632294382042524 34.86522329778457 0 0 0
3769 1 10.858497424324238 11.624032750309539 37.07370076505746 0 0 0
3772 1 13.453784900346477 10.15201132163239 37.160505458268005 0 0 0
3335 1 15.117117940269255 10.289514899053758 34.81238842725499 0 0 0
3773 1 16.05337996366859 11.57249052026005 37.0050767115855 0 0 0
3776 1 18.66588338452883 10.191010859637439 37.001556822941666 0 0 0
3376 1 17.931311801306922 11.64270856656309 34.729181340105434 0 0 0
3339 1 20.32524605623037 10.077968559302567 34.808375445851446 0 0 0
3779 1 21.316985472191536 11.527212527936058 36.96712637336165 0 0 0
3380 1 22.938938996001976 11.604428241709108 34.72658660820771 0 0 0
3780 1 23.93659244996406 10.181292667362664 37.015423501660024 0 0 0
3781 1 25.574519550494067 10.083347556752463 34.804027060698 0 0 0
3783 1 26.441007339997597 11.6644644005296 36.810038115118985 0 0 0
3784 1 28.934586547010934 10.025877299603582 36.99976463948199 0 0 0
3384 1 28.20466041230519 11.571512803559937 34.75309609187149 0 0 0
3347 1 30.70489346290351 10.054083963626175 34.77788318789402 0 0 0
3785 1 31.465483711444335 11.497525776092042 37.028944278649284 0 0 0
3388 1 33.231516588708345 11.68461592612913 34.75189468126717 0 0 0
3747 1 34.16373565569323 10.203406828954877 37.020738280718646 0 0 0
3789 1 35.926031697216615 10.136934733116696 34.888230815739725 0 0 0
3788 1 36.70287145640006 11.53631360090002 37.07631203707776 0 0 0
3795 1 39.317592054824715 12.924659158194885 36.87475301497676 0 0 0
3790 1 38.49836004060438 11.617977102915809 34.788263316603576 0 0 0
3792 1 39.45188186874515 9.985707182124242 37.10067715748625 0 0 0
3392 1 41.03675778854816 10.096642762312472 34.86563064823693 0 0 0
3393 1 41.019904733516526 12.924281136819804 34.92751484300595 0 0 0
3354 1 43.72371250424199 11.522609874434533 34.83023636960258 0 0 0
3355 1 41.928415881771286 11.386889960091677 37.083026289754194 0 0 0
3396 1 44.66033311049142 12.968131326481448 36.887021379429605 0 0 0
3754 1 44.70237558469047 9.966127567978374 37.04925058312084 0 0 0
3397 1 46.42696164756639 12.874248144704659 34.61435823749264 0 0 0
3359 1 47.29223580988972 11.362762472512248 36.921407448070205 0 0 0
3357 1 46.395052544549756 9.883224463636303 34.68508452539722 0 0 0
3400 1 49.83069741400605 12.985256120550808 36.85957690685483 0 0 0
3321 1 51.56391502786563 9.976152504546278 34.68906020836322 -1 0 0
3361 1 51.545817517914614 12.972352579857755 34.679015529980326 -1 0 0
3358 1 48.919927390917664 11.459698077905779 34.735013750741096 0 0 0
3360 1 49.981324807719716 9.800968146305177 36.91423504470468 0 0 0
3362 1 2.2645001063310937 14.6073701913156 34.55920726352358 0 0 0
3404 1 2.920481876309723 16.11212155282685 36.76882893650867 0 0 0
3363 1 0.2559625715394024 14.467453727141855 36.85269748816679 0 0 0
3405 1 4.777491009553176 16.17334135601902 34.703624702175354 0 0 0
3365 1 4.904403348552488 13.154563287178572 34.72159762016258 0 0 0
3367 1 5.697366350823732 14.699433491860876 36.98610695533845 0 0 0
3765 1 3.0533659994921822 13.033381313145512 36.96136421582066 0 0 0
3366 1 7.352873793642236 14.631735856588868 34.700859536083904 0 0 0
3408 1 8.269872619627023 16.080951923651206 36.908522853300056 0 0 0
3766 1 8.344341307135375 13.056448494508992 37.01654050716745 0 0 0
3409 1 9.92697257080143 16.017250159010732 34.73706838430099 0 0 0
3371 1 9.934074218126328 13.05263888090916 34.82588893559703 0 0 0
3809 1 10.87655533536967 14.554515104265807 36.9547190468203 0 0 0
3412 1 12.595055944582288 14.633286115676537 34.732296315429785 0 0 0
3770 1 13.324680104906735 13.081976116538119 37.00856337401343 0 0 0
3810 1 13.436217785525068 16.12083915709199 36.78674811202213 0 0 0
3813 1 16.080022167233942 14.651749740660115 36.830491913365535 0 0 0
3413 1 15.248963190706258 16.17706131587541 34.6657852770661 0 0 0
3375 1 15.131787524379458 13.053655576804552 34.689264152145526 0 0 0
3416 1 18.720536373285036 16.150000986049946 36.843066209483894 0 0 0
3374 1 17.911428269459947 14.754978013121296 34.53698343218608 0 0 0
3774 1 18.733811197067077 13.243419469884852 36.800636508962256 0 0 0
3777 1 20.316093002329332 13.188618751111452 34.57541885645784 0 0 0
3417 1 20.533129460818035 16.23123008171367 34.63836232885491 0 0 0
3378 1 23.069815820903155 14.689716616274666 34.55480705314247 0 0 0
3379 1 21.210521214512493 14.710161310316789 36.80417593011273 0 0 0
3420 1 23.795777681291806 16.129033713020316 36.796740483749694 0 0 0
3778 1 23.792532268569 13.141441287806629 36.75893378057319 0 0 0
3821 1 26.430778404563448 14.651476353846032 36.93311964299689 0 0 0
3421 1 25.654156955212073 16.188524393665446 34.642216777509375 0 0 0
3383 1 25.646585027969792 13.163903557988831 34.58874389232477 0 0 0
3424 1 29.065387392371196 16.095680536567567 36.779135099237216 0 0 0
3382 1 28.13652190428998 14.559927263210152 34.56718696878287 0 0 0
3782 1 29.143846619196587 13.118032829869858 36.908485868593495 0 0 0
3425 1 30.810702629078193 16.27529702590142 34.48436430002629 0 0 0
3385 1 30.771733837789505 13.129636055198038 34.69267261831324 0 0 0
3386 1 33.36645505841986 14.59190842316633 34.67214138695001 0 0 0
3387 1 31.618876414375112 14.48458777493461 36.822817111644966 0 0 0
3428 1 34.17787503973773 16.062356044312217 36.84293278790956 0 0 0
3429 1 36.0052933121337 16.173663562525658 34.704810307895336 0 0 0
3391 1 36.790159296666474 14.582256261407753 36.887238376782115 0 0 0
3786 1 34.22939441363671 13.007845922930159 36.890677152948044 0 0 0
3389 1 36.02671130987373 13.089850324502692 34.65330625349366 0 0 0
3390 1 38.48107924642028 14.578976401308253 34.63449316076188 0 0 0
3432 1 39.44631201665119 15.984338962810309 36.81250580744838 0 0 0
3433 1 41.085151500305415 16.08230223841096 34.59524774411476 0 0 0
3395 1 41.93552977629703 14.633401943632023 36.95855487808606 0 0 0
3394 1 43.62394525270396 14.514231478785184 34.75793718386082 0 0 0
3436 1 44.58237938867239 16.006322628832294 36.818468155817406 0 0 0
3399 1 47.248703055218286 14.44461895775256 36.915460788597365 0 0 0
3437 1 46.34928083218689 16.0665093625089 34.70255159524896 0 0 0
3398 1 48.86541024236668 14.574292474897451 34.74569935035486 0 0 0
3440 1 49.87501332370465 15.922678384023971 36.81900395472695 0 0 0
3401 1 51.57306228543814 15.988160504293013 34.60651586817893 -1 0 0
3402 1 2.0248022810187636 17.62161265825208 34.7587000052087 0 0 0
3403 1 0.4014438415318865 17.502034594954807 36.85945510437851 0 0 0
3444 1 2.9658998173970645 19.01851661018577 36.814149278318304 0 0 0
3407 1 5.55876141535551 17.6212274804438 36.84545364334555 0 0 0
3445 1 4.601866738317546 19.101494765298884 34.474381574757146 0 0 0
3406 1 7.400714718954303 17.58312106582449 34.64633926365298 0 0 0
3448 1 8.241942391542253 19.124815855511528 36.78879518271113 0 0 0
3449 1 9.797450351948752 19.196202395079546 34.61057621701332 0 0 0
3411 1 10.732771175611763 17.606676491502487 36.841605839116625 0 0 0
3410 1 12.469749483483827 17.575007442999897 34.67505074400461 0 0 0
3452 1 13.365135967253144 19.222365591890917 36.78341579115372 0 0 0
3453 1 15.180328058595522 19.345525950192275 34.61797200402975 0 0 0
3415 1 16.024730566350566 17.69364901803797 36.85208616187546 0 0 0
3456 1 18.717307247321408 19.067269096754877 36.8003617269332 0 0 0
3414 1 17.89644464129036 17.64310025765456 34.613644857880324 0 0 0
3457 1 20.339271339405737 19.34775045023627 34.4963218353772 0 0 0
3418 1 23.131373671704345 17.715102620830596 34.48284117772032 0 0 0
3419 1 21.253246686852506 17.72174332444381 36.84283986504669 0 0 0
3460 1 23.939092327581026 18.997381063961335 36.71785900473471 0 0 0
3461 1 25.72119759228123 19.14563233143231 34.41284001646699 0 0 0
3423 1 26.492545364658884 17.732118009884562 36.66998350237398 0 0 0
3464 1 29.202875649658992 19.15639566564142 36.69270541062516 0 0 0
3422 1 28.221551656872226 17.607066567895192 34.5500562113345 0 0 0
3465 1 30.770783193627565 19.24646748918368 34.55251096753117 0 0 0
3427 1 31.580224667390194 17.640463464769326 36.72834702842282 0 0 0
3426 1 33.3741298263413 17.737326183648445 34.551614156271626 0 0 0
3468 1 34.27558775287689 19.171822748015835 36.62766381295294 0 0 0
3469 1 35.942362458959224 19.207169071777592 34.566673132151315 0 0 0
3431 1 36.785857162327616 17.536075136959962 36.81797079171742 0 0 0
3430 1 38.52000624942794 17.74943497342247 34.708170643351295 0 0 0
3472 1 39.352487325301496 19.098029275441085 36.75789529711255 0 0 0
3473 1 41.09702654796112 19.12585910574176 34.62349227932991 0 0 0
3434 1 43.729349887201195 17.56388388418741 34.622600407750234 0 0 0
3435 1 42.028191395964 17.61545656804669 36.79990187951652 0 0 0
3476 1 44.56536272178727 19.05420836745098 36.766639058228265 0 0 0
3439 1 47.237342149161904 17.356330098436256 36.83232808177958 0 0 0
3477 1 46.2804628472291 19.099458528193207 34.582741058485816 0 0 0
3438 1 48.899640994712456 17.576945618391008 34.74633718385261 0 0 0
3480 1 49.972349073464386 19.064357657140363 36.86142883761344 0 0 0
3441 1 51.49706550196062 19.14695808611815 34.6642674225977 -1 0 0
3443 1 0.4202264835560511 20.60659583725126 36.79791100877051 0 0 0
3442 1 2.090913983662189 20.679651934125566 34.50421285717134 0 0 0
3484 1 3.081259649967389 22.18750417948072 36.7388580898151 0 0 0
3447 1 5.685070082046606 20.431136547841508 36.895274281983 0 0 0
3485 1 4.6665504464525736 22.103837507896642 34.513134427678295 0 0 0
3446 1 7.223426451528995 20.704491811236604 34.60821954919824 0 0 0
3488 1 8.213793519146362 22.07229121001992 36.76673096107176 0 0 0
3489 1 9.871752816671467 22.14690507623862 34.571143165511934 0 0 0
3450 1 12.56668813499617 20.648216025087518 34.52021876310269 0 0 0
3451 1 10.86536905408182 20.57158107683777 36.71682423603741 0 0 0
3492 1 13.366899676218257 22.173030557842065 36.74903711521965 0 0 0
3493 1 15.162763939406457 22.281360900135187 34.571981627981536 0 0 0
3455 1 16.105196384288682 20.802449192867712 36.656063758638595 0 0 0
3496 1 18.791389021379658 22.240297426335673 36.680097251695855 0 0 0
3454 1 17.92691347943042 20.83909181596045 34.54319267629834 0 0 0
3497 1 20.534323954224845 22.25821751645364 34.349825170410895 0 0 0
3459 1 21.32549475881749 20.599235945304688 36.72078473279976 0 0 0
3458 1 23.04554233460712 20.76235448746311 34.33746664430392 0 0 0
3500 1 23.83424784043937 22.097630212533037 36.64853596873675 0 0 0
3501 1 25.710241796216714 22.300317214298268 34.423036244898775 0 0 0
3463 1 26.54388166213814 20.47871270798227 36.75131852391862 0 0 0
3504 1 29.28641804371508 22.18002735462006 36.721689606843356 0 0 0
3462 1 28.207654901331605 20.712544746442887 34.49066655099021 0 0 0
3505 1 30.688440825760395 22.227624876661583 34.28190937815385 0 0 0
3466 1 33.36795208843803 20.7380182947468 34.44036472654525 0 0 0
3467 1 31.65288805930557 20.669634732832108 36.736876233126175 0 0 0
3508 1 34.308580967564495 22.0316457559597 36.67618553773334 0 0 0
3509 1 36.087082166422675 22.224475301108978 34.50397107931995 0 0 0
3471 1 36.95811714161778 20.616688515107963 36.76539373870029 0 0 0
3470 1 38.560017841408964 20.671624683383122 34.5501833296883 0 0 0
3512 1 39.452081859827786 22.245085474235847 36.7535803305918 0 0 0
3513 1 41.06115680872574 22.201627804652396 34.53677406624101 0 0 0
3474 1 43.76697748059638 20.626729636168278 34.62062035098457 0 0 0
3475 1 41.94119175364057 20.643704932530675 36.79007697765165 0 0 0
3517 1 46.38015055183567 22.063407374774304 34.504053728458146 0 0 0
3479 1 47.178702471611075 20.59068152014569 36.665966051048585 0 0 0
3516 1 44.69794372778752 22.271068623580227 36.63975060649343 0 0 0
3520 1 49.849789453865796 22.093951128619782 36.799077307126325 0 0 0
3478 1 49.02125068568566 20.590797490666905 34.60403930056154 0 0 0
3481 1 51.56864293325452 22.23010287575634 34.44142611564618 -1 0 0
3523 1 0.28734526817504535 26.51424501432844 36.59560235286471 0 0 0
3522 1 2.289690227650018 26.470208275979665 34.40593864761995 0 0 0
3482 1 2.1295981550449845 23.555275065885393 34.53167397371474 0 0 0
3483 1 0.46391908143530125 23.64179316066011 36.74401992738697 0 0 0
3524 1 3.004938660120606 25.029455103908273 36.70494683468556 0 0 0
3527 1 5.542514355099163 26.555928950197075 36.75237549751968 0 0 0
3525 1 4.8071809561572625 25.089526736007493 34.633904553414254 0 0 0
3487 1 5.630314826465679 23.662489452767183 36.74190481554488 0 0 0
3526 1 7.338897931861262 26.531919445677698 34.37961334172853 0 0 0
3528 1 8.20531244681304 25.083297055645826 36.853123248243804 0 0 0
3486 1 7.313394984190012 23.690048631377735 34.59535186337082 0 0 0
3529 1 9.80476782120552 25.188777018313605 34.54338911375479 0 0 0
3531 1 10.738950029165718 26.7030980792127 36.71536752180899 0 0 0
3530 1 12.469382526152026 26.70252219777731 34.48039304857765 0 0 0
3491 1 10.860078881051088 23.57387691689937 36.86727363652178 0 0 0
3532 1 13.358858168291007 25.149491449297223 36.766564008088686 0 0 0
3490 1 12.478289223802799 23.772534677284757 34.37308365656544 0 0 0
3533 1 15.228364959844983 25.263501340504675 34.4090950771763 0 0 0
3535 1 16.01998240621118 26.554050765411812 36.644973336821124 0 0 0
3495 1 16.035406277867317 23.56634690730385 36.79299658190349 0 0 0
3534 1 17.836970650114843 26.63289571552054 34.40981214326048 0 0 0
3536 1 18.68655841121652 25.211945015157855 36.69014924931911 0 0 0
3494 1 17.76248092881208 23.817314020179843 34.489801539777545 0 0 0
3537 1 20.456940051680558 25.21484415232236 34.371406183477596 0 0 0
3499 1 21.36654378040958 23.713330057654257 36.626884576251804 0 0 0
3498 1 23.085793977951234 23.690706077711766 34.38331319911653 0 0 0
3538 1 23.10195572506401 26.637046486194624 34.37902986041975 0 0 0
3539 1 21.41194457770308 26.61486678151674 36.61056967980433 0 0 0
3540 1 24.02353302772864 25.096132318738654 36.63501222320656 0 0 0
3541 1 25.58297493974628 25.249877457213888 34.413191431503556 0 0 0
3503 1 26.567589513669084 23.722898410824634 36.6312289617477 0 0 0
3543 1 26.469163447601417 26.63555001427901 36.508474102225684 0 0 0
3502 1 28.289639945574166 23.759144749436576 34.28723692144796 0 0 0
3544 1 29.09284955188637 24.991360056587677 36.57800514251832 0 0 0
3542 1 28.280271800818543 26.714086927088925 34.23789911981392 0 0 0
3545 1 30.88095493167477 25.297227315013213 34.40706668146533 0 0 0
3507 1 31.812116057034583 23.617005551078833 36.74688161941216 0 0 0
3506 1 33.54776505685376 23.62322655062041 34.35849469380275 0 0 0
3547 1 31.777987421988936 26.653383350099826 36.68447455976257 0 0 0
3546 1 33.42762863948654 26.705610087327642 34.34116761807861 0 0 0
3548 1 34.289939898640725 25.15703256281914 36.58237278659484 0 0 0
3549 1 36.11211398967245 25.263232242446083 34.36085221742664 0 0 0
3551 1 36.91486604815695 26.64226047041863 36.62111634128694 0 0 0
3511 1 36.93288388565361 23.67861988496977 36.69847260393515 0 0 0
3552 1 39.5554147361225 25.201480023110708 36.6425437722043 0 0 0
3510 1 38.522243962184334 23.758376485139806 34.5327811552139 0 0 0
3550 1 38.66626882245697 26.794956218026968 34.35800238467703 0 0 0
3553 1 41.20014626315525 25.28874079398271 34.322208955017814 0 0 0
3515 1 42.02004826453427 23.769347229294386 36.566118115085274 0 0 0
3555 1 42.14849924925575 26.79279163724273 36.63193798299459 0 0 0
3554 1 43.828644711204845 26.76773937643348 34.464489200003776 0 0 0
3514 1 43.75773236143574 23.738306985760467 34.428931601796045 0 0 0
3556 1 44.652321076840124 25.27728596945092 36.61667494210968 0 0 0
3519 1 47.1965436387722 23.63755147420269 36.73971115723331 0 0 0
3557 1 46.396733379257356 25.052406701973876 34.4726980326356 0 0 0
3559 1 47.29274555364849 26.536588566105806 36.64747351302731 0 0 0
3521 1 51.42960099458908 25.098714385697935 34.501094031672984 -1 0 0
3518 1 48.959510310024314 23.530866872881358 34.3473983074313 0 0 0
3560 1 49.91737279975749 24.841687256372296 36.81486650882444 0 0 0
3558 1 48.853877574227255 26.65426041540002 34.36248107922143 0 0 0
3562 1 2.0865273878748587 29.63596502321291 34.40921722520803 0 0 0
3563 1 0.36531085040175726 29.583037177584686 36.692459347775106 0 0 0
3564 1 2.938855526104604 28.086451619328905 36.652491844948 0 0 0
3561 1 -0.2854635194468784 28.18278302596819 34.46284100594856 0 0 0
3565 1 4.759860774025954 28.11339547212507 34.580290991546235 0 0 0
3965 1 5.743057709867014 29.594815396383773 36.771038142410696 0 0 0
3568 1 8.177007333323287 28.046926912076316 36.83368985085389 0 0 0
3566 1 7.475540600837752 29.577429538116583 34.43905964303659 0 0 0
3569 1 10.038191909980942 28.107415516442067 34.36363759802069 0 0 0
3570 1 12.612906753398617 29.620477446922592 34.38323223657234 0 0 0
3969 1 10.82890619326028 29.458489458273966 36.738666886246925 0 0 0
3572 1 13.582946609685756 28.150576138006542 36.67354999877346 0 0 0
3573 1 15.143139740114687 28.158536713511545 34.388101800984614 0 0 0
3935 1 16.207946482689447 29.524221941541086 36.62643377226706 0 0 0
3576 1 18.7024435173786 28.078317083274044 36.577379422669054 0 0 0
3574 1 17.70213430586435 29.52593539827121 34.32506028785681 0 0 0
3577 1 20.3807934890896 28.17720559731611 34.27713441899026 0 0 0
3579 1 21.282974312310046 29.530596210047598 36.59221067877713 0 0 0
3578 1 23.044599055271732 29.649552437406406 34.32505923756188 0 0 0
3580 1 24.01173355312189 28.027267691715537 36.551347382368384 0 0 0
3581 1 25.617517544549663 28.19112405371488 34.336661378484436 0 0 0
3583 1 26.522742133139168 29.606842407887257 36.74589535200427 0 0 0
3584 1 29.06554559206568 27.992634360105825 36.68067335278719 0 0 0
3582 1 28.231679878265258 29.627299996296642 34.432050564119045 0 0 0
3585 1 30.728552360697787 28.175971043774325 34.42170141909141 0 0 0
3586 1 33.47728989099349 29.631436976444718 34.32712991331914 0 0 0
3587 1 31.631645015367003 29.45868904443246 36.58817855558104 0 0 0
3588 1 34.34378808988632 28.035896698967917 36.733795797787494 0 0 0
3589 1 35.91926911022436 28.219771708422762 34.41535660242477 0 0 0
3591 1 36.91237818493265 29.735886865836086 36.5756748321825 0 0 0
3592 1 39.68542263779227 28.25271189163908 36.52918501272992 0 0 0
3590 1 38.586392092715556 29.943801049598918 34.212125606703545 0 0 0
3593 1 41.1644085326713 28.45797116514192 34.18856721395837 0 0 0
3595 1 42.04537325326231 29.716985748068986 36.52465036699989 0 0 0
3594 1 43.80629713283844 29.695183193435206 34.29770137115302 0 0 0
3596 1 44.58350668342655 28.245417917227726 36.63285010340558 0 0 0
3597 1 46.41579891873309 28.184520275358906 34.32827993846627 0 0 0
3599 1 47.255872387274465 29.626086593578314 36.66093477349335 0 0 0
3600 1 49.766416208287325 28.032890589159877 36.699028474177055 0 0 0
3598 1 48.89618038065184 29.567026961917108 34.34273372282026 0 0 0
3241 1 -0.42289659067959917 33.94577301000615 34.45778053943192 0 -1 0
3201 1 -0.4750289422599468 31.059752621834853 34.449685241536784 0 -1 0
3202 1 2.108719259354735 32.46375888085292 34.46611091578563 0 -1 0
3203 1 0.2927878396958361 32.42828116060954 36.75994111317297 0 -1 0
3605 1 2.9650186710631927 33.83890240047001 36.82681635452538 0 -1 0
3204 1 2.9987203847598365 31.009627747366984 36.68325134897146 0 -1 0
3567 1 4.730935427386332 31.10030040699938 34.41395586969916 0 0 0
3966 1 5.6107278020413265 32.517659386642116 36.579717509320886 0 0 0
3571 1 8.296745500920352 30.85744846897029 36.76847989612932 0 0 0
3208 1 7.370373732272511 32.4532027291209 34.33295943881854 0 -1 0
3608 1 8.369591521654739 33.75315782743897 36.76449975524125 0 -1 0
3609 1 9.890234910254666 33.936537168320214 34.51419242914222 0 -1 0
3209 1 9.976339312958965 30.919113058918853 34.38590576269285 0 -1 0
3971 1 10.827058602194336 32.32975595430005 36.63572215095025 0 0 0
3970 1 12.536162123698253 32.47962014902592 34.29129847550695 0 0 0
3612 1 13.431788526531138 33.75817038166758 36.70370294094225 0 -1 0
3972 1 13.500881727327272 30.93381505851884 36.82959508965712 0 0 0
3975 1 16.106624002815728 32.33753694493738 36.70065623749247 0 0 0
3973 1 15.19112007950956 31.02496872411365 34.33667235940261 0 0 0
3613 1 15.244446231576259 33.88650253683258 34.386455087633 0 -1 0
3217 1 20.26825690619516 31.111162636961524 34.45403109394494 0 -1 0
3974 1 17.774054788873006 32.50301056226963 34.48133264785934 0 0 0
3614 1 18.770253302502383 33.810255501964555 36.79540649914317 0 -1 0
3976 1 18.660350848212722 30.879152779619346 36.665643869185665 0 0 0
3216 1 20.34023947250857 33.974117976343564 34.30407201184195 0 -1 0
3979 1 21.293610239381195 32.32701554725762 36.77291800667823 0 0 0
3218 1 23.0272592053635 32.553604673773066 34.498764570165626 0 -1 0
3620 1 23.98647391198818 33.87995080225743 36.75283691083793 0 -1 0
3220 1 23.8728247098591 30.854933801953457 36.88449928671009 0 -1 0
3221 1 25.67063602983583 31.168029137220707 34.38261911946717 0 -1 0
3621 1 26.473747464617066 32.55128464059876 36.86103418959701 0 -1 0
3222 1 28.213037651381267 32.6210733026122 34.40892958565821 0 -1 0
3224 1 29.089624472962022 31.07059094123889 36.632680276213534 0 -1 0
3225 1 30.86641560681212 31.157735375585297 34.39584120433757 0 -1 0
3227 1 31.73224285247934 32.43135382973311 36.59609497808993 0 -1 0
3226 1 33.4344499331162 32.60157428512525 34.31882435916936 0 -1 0
3228 1 34.24782843151294 30.98018044083006 36.803679278654016 0 -1 0
3229 1 35.986674630720515 31.172148549707956 34.390268373276726 0 -1 0
3231 1 36.83742258651873 32.60014208248169 36.592788275481 0 -1 0
3626 1 34.295721639663086 33.984395829615195 36.68762369971747 0 -1 0
3232 1 39.52293664128358 31.190413848004617 36.63470017950442 0 -1 0
3230 1 38.5426032089473 32.957732828440925 34.230369651380954 0 -1 0
3233 1 41.10303273654358 31.38963972913656 34.22538517834884 0 -1 0
3273 1 42.00303016400659 32.48501257880376 36.79266862439149 0 -1 0
2875 1 43.7370701043357 32.714646661877616 34.463243101339515 0 -1 0
3234 1 44.733054083225454 31.09900384642141 36.51654693020908 0 -1 0
3270 1 44.71181856503043 33.99010988489501 36.734617683755985 0 -1 0
3239 1 47.33650038743585 32.51122335745539 36.5735953989257 0 -1 0
3237 1 46.47209438092378 31.13718148011919 34.29323385174198 0 -1 0
3240 1 49.791881902659966 31.019762100635468 36.54908975056374 0 -1 0
3238 1 48.94992579068956 32.576810136561186 34.2668987233985 0 -1 0
3280 1 49.865379611748494 33.98721081847029 36.67094885910119 0 -1 0
3603 1 -0.449953651250435 -1.9156189020668402 39.13946617887272 0 0 0
3604 1 2.1478312764609226 -3.288901092896202 39.05277383922525 0 0 0
5 1 5.0127321504958555 -1.8405352323181638 39.19390869348187 0 0 -1
366 1 7.452836238434717 -3.3891868691149623 39.04536709156286 0 1 -1
9 1 10.043520189561738 -1.9797571000284195 39.205732230447474 0 0 -1
370 1 12.57369062144512 -3.4159639833325 39.21117203458239 0 1 -1
13 1 15.119890999106085 -1.9801843565905317 39.320534092697166 0 0 -1
3616 1 17.71413284295466 -3.4491637676012896 39.22354245112858 0 0 0
3619 1 20.383949137639092 -1.8858408930133024 39.10846241006002 0 0 0
18 1 22.898139226411104 -3.263087663412048 39.014565334051746 0 0 -1
61 1 25.532051963471364 -1.8338347372323418 39.025537250968114 0 0 -1
3623 1 28.069381643207183 -3.493041464228021 39.07939055207642 0 0 0
22 1 30.725769332003164 -1.9719719312793975 39.11464971719401 0 0 -1
3627 1 33.29299690909252 -3.287015438456943 39.06713426220202 0 0 0
3668 1 35.94275978457053 -1.8323169128108336 38.99001922860526 0 0 0
3631 1 38.578581560106386 -3.132234568008008 38.920453852886524 0 0 0
30 1 41.10710582700732 -1.8084195050744265 39.273310345962535 0 0 -1
3635 1 43.78017303797243 -3.1014689732783403 39.167683853912294 0 0 0
3276 1 46.38051267358006 -1.7406232275767555 39.026254127418376 0 0 0
3677 1 48.99980904854725 -3.3082605821004716 39.150092315188104 0 0 0
2 1 2.3229761090078296 -0.3784770890288556 39.05424083784287 0 0 -1
41 1 -0.26968446551100345 1.0790809931716066 39.35666764167377 0 0 -1
42 1 2.2898063327355747 2.4915402159848856 39.174937719235395 0 0 -1
45 1 4.7299136818973935 1.0226831948755182 39.06557952839033 0 0 -1
6 1 7.350696682686982 -0.3521852945264925 39.010518380433936 0 0 -1
46 1 7.412765353216978 2.4929526001961753 39.144786215176374 0 0 -1
49 1 10.116626936782039 1.1212630378247628 39.15593809883094 0 0 -1
10 1 12.6012915659881 -0.6013353327341142 39.22412592333588 0 0 -1
50 1 12.608643162893594 2.3669300871151817 39.20628432982933 0 0 -1
53 1 15.29644309542846 0.9226352093246142 39.227945754502855 0 0 -1
14 1 17.820355585013747 -0.6544431767112115 39.28636447653828 0 0 -1
57 1 20.324456338603024 1.022359206473081 39.272230090318615 0 0 -1
54 1 17.81628351913849 2.43039677646406 39.31233225911348 0 0 -1
3660 1 22.94656597237183 -0.2530231658966535 39.16213591554479 0 0 0
58 1 22.955370010051475 2.4749666327658817 39.214867405964654 0 0 -1
3663 1 25.57683513433668 1.0530073083808684 39.15292079497457 0 0 0
62 1 28.319825998051797 -0.6309323719897488 38.936285484792535 0 0 -1
105 1 30.57216114997777 1.0446776598422138 39.22634673490606 0 0 -1
3704 1 28.154368333771018 2.337063761636454 38.95505404185052 0 0 0
65 1 33.42120346390976 -0.39117206264208715 39.162341799876465 0 0 -1
66 1 35.940625380703494 1.0314198600887776 39.21378001011728 0 0 -1
70 1 38.55475241087727 -0.4101941654100898 39.098581171426254 0 0 -1
3672 1 41.21167739985276 1.2048526692610242 39.34168174929465 0 0 0
3713 1 43.73137465419285 -0.1360733975853723 39.219137139892055 0 0 0
3679 1 46.4850478387262 1.1097404651987217 39.21099058963176 0 0 0
3680 1 48.80150402841407 -0.3888744957858066 39.097513652928335 0 0 0
82 1 2.2327987948294936 5.378051875288156 39.25298051293651 0 0 -1
81 1 -0.4001967463794378 3.9968105871200024 39.143595919740356 0 0 -1
85 1 4.729454300910733 3.9273896309391176 39.27097427226131 0 0 -1
86 1 7.507206608894795 5.4092194533424625 39.26330553377437 0 0 -1
89 1 10.10850740603138 3.940436940792006 39.3975637592941 0 0 -1
90 1 12.573789565352037 5.591942851818681 39.40646112130432 0 0 -1
93 1 15.130229450576492 4.013635538963939 39.34463127618359 0 0 -1
94 1 17.834660326238854 5.553156372930031 39.36140438395046 0 0 -1
97 1 20.308885858139064 3.9948869280950756 39.40544292869503 0 0 -1
98 1 22.967129063525675 5.448208102594037 39.22698560289575 0 0 -1
101 1 25.504085450789248 4.036153909822314 39.30558717514268 0 0 -1
102 1 28.09124889860724 5.425315046761336 39.286572181475634 0 0 -1
3707 1 30.591334107031106 3.8262179170731603 39.28870335770984 0 0 0
3667 1 33.404753908935305 2.666663574389675 39.288436701332664 0 0 0
106 1 33.34554281386693 5.488850896252847 39.34388502058614 0 0 -1
109 1 36.0221649942782 4.082083861611499 39.37289470898519 0 0 -1
3712 1 38.521194073114785 2.7105517537023394 39.35009163198269 0 0 0
110 1 38.556078979270524 5.538070482496238 39.4612114140642 0 0 -1
113 1 41.24296775343694 4.097238626556832 39.43422141644739 0 0 -1
3675 1 43.82860410621332 2.5709897692884667 39.36237243921951 0 0 0
114 1 43.921189166076545 5.634753457447879 39.29244884479745 0 0 -1
117 1 46.50567043752842 4.18757461910384 39.37521744370103 0 0 -1
78 1 49.07047427401166 2.6803414456760324 39.220249156884314 0 0 -1
157 1 49.21774047050819 5.5745978023223834 39.20093545551824 0 0 -1
121 1 2.2759835758950246 8.422614146513835 39.208343485420734 0 0 -1
118 1 -0.35993249354220425 6.862153826679476 39.216845535147534 1 0 -1
125 1 4.954120907799971 6.938559249486799 39.28248526702033 0 0 -1
126 1 7.4903276076039225 8.62964588502573 39.27406185455225 0 0 -1
129 1 9.944925569686701 7.0142283284768965 39.48071528436776 0 0 -1
130 1 12.718915685393775 8.597555638018266 39.37115280303307 0 0 -1
133 1 15.372659166909502 6.919829138424971 39.39101895263203 0 0 -1
134 1 17.942211826830807 8.531028057925404 39.19289066593736 0 0 -1
137 1 20.409793730039592 7.070392917079037 39.22050352260916 0 0 -1
138 1 22.970739616799236 8.630531457805946 39.22713150858988 0 0 -1
141 1 25.561710000717284 7.037613556566384 39.32440717144299 0 0 -1
142 1 28.0515502075514 8.414844831724302 39.205530928783546 0 0 -1
145 1 30.67791794445448 7.053697080138512 39.21537869837855 0 0 -1
146 1 33.370904664989155 8.522301671138914 39.16926892168863 0 0 -1
149 1 35.87683678835761 6.984235432563057 39.28123283727269 0 0 -1
150 1 38.53259457674322 8.455995613509353 39.30356138598035 0 0 -1
153 1 41.216292544315564 6.975445447772556 39.432423864953186 0 0 -1
3755 1 43.74567072063152 8.570523492791647 39.38414603280251 0 0 0
154 1 46.4850485569921 7.065066184453709 39.26204033556188 0 0 -1
158 1 49.12293020336266 8.51058990525018 39.18521294002902 0 0 -1
3764 1 2.176863683729895 11.412858482125115 39.102065156805864 0 0 0
3727 1 4.695635487005658 10.012933632226911 39.19733297886228 0 0 0
3768 1 7.412968548783411 11.558025764170218 39.30067602227774 0 0 0
169 1 10.113340938872218 10.085460144606762 39.38582538815704 0 0 -1
170 1 12.561817815357275 11.532989473636952 39.33085358134207 0 0 -1
173 1 15.35139000977679 10.016229880213999 39.31551278634384 0 0 -1
177 1 20.320106078150733 10.051925101319018 39.171697353844785 0 0 -1
174 1 17.812665617585573 11.54406030224338 39.078542514440215 0 0 -1
178 1 23.029499713329017 11.61229213809484 39.09122888505425 0 0 -1
181 1 25.444704554303797 10.054908445028337 39.21035172973816 0 0 -1
182 1 28.146503387604866 11.520992663119099 39.10149736795279 0 0 -1
3787 1 30.740393842878134 12.916722229804705 39.18445032820331 0 0 0
185 1 30.655756489065944 9.933340405542658 39.35927772399855 0 0 -1
186 1 33.40010934738872 11.425239380136547 39.31043433290684 0 0 -1
189 1 35.87138362914634 9.99502053473634 39.286778423918584 0 0 -1
190 1 38.65638701552919 11.470518244396432 39.22027252834082 0 0 -1
193 1 41.16200373025541 9.957230787660446 39.31382677268995 0 0 -1
3796 1 43.7802125721216 11.572386605361782 39.22294603216118 0 0 0
3759 1 46.497397319549975 9.9450443664673 39.15945077255944 0 0 0
3797 1 46.31422131299787 12.875822597032272 39.15658676381867 0 0 0
3758 1 48.958163242208386 11.4585165426374 39.037168606800705 0 0 0
3723 1 51.565530332033106 9.92566070655297 39.218180648364545 -1 0 0
3761 1 51.47677009068178 12.750372599484344 39.127733937065514 -1 0 0
3762 1 2.1653914949276967 14.413984889081846 39.11832760341634 0 0 0
3801 1 -0.3844226082999995 15.984205511043058 38.95591871303365 0 0 0
3805 1 4.73970907864134 16.063110344906892 39.15343028179633 0 0 0
3767 1 4.641127619979798 13.047560338025207 39.225439678886595 0 0 0
3808 1 7.388777044936018 14.577752520649256 39.28309592304995 0 0 0
3811 1 10.008397138156678 16.076033443545278 39.0407938533823 0 0 0
3812 1 12.646542219754398 14.57116961360509 39.08931597252926 0 0 0
3771 1 10.015351666588801 13.16779500478372 39.307039877361234 0 0 0
3815 1 15.156415386921088 16.060601074960434 39.11797524128016 0 0 0
3775 1 15.300599134564413 13.127424586930445 39.19568368185252 0 0 0
3816 1 17.810923660126157 14.500858043319809 39.18128653983611 0 0 0
3817 1 20.308779280073434 16.045162073755098 39.1078728502304 0 0 0
3820 1 22.920417527976046 14.627805946903923 38.948276130091195 0 0 0
217 1 20.37734890243622 13.105027049796199 39.0008741275374 0 0 -1
221 1 25.632526019725642 13.017355259014657 39.0003133806997 0 0 -1
3823 1 25.608210331247612 16.01696875155612 39.00600692713286 0 0 0
3824 1 28.26050611236965 14.54170483332264 39.06276333134006 0 0 0
3825 1 30.871430681539383 16.092385184559397 39.04514350822728 0 0 0
3828 1 33.47226362947464 14.437915367524873 39.11443673052016 0 0 0
3791 1 35.9539657438026 13.025252893423662 39.191144774104366 0 0 0
3829 1 35.93933610732634 16.220572874657083 38.986766676191394 0 0 0
194 1 41.13808560241213 13.007045679484875 39.16527580296141 0 0 -1
3832 1 38.56360324624538 14.395832341303066 39.209952284722974 0 0 0
3833 1 41.14620445568596 16.056077960786393 39.07817982317271 0 0 0
3794 1 43.81366231688034 14.597212184495483 39.1890047024084 0 0 0
3837 1 46.31467487338854 15.964987057535904 38.99081617698821 0 0 0
3798 1 48.867148129458826 14.45079250732173 39.01396649378091 0 0 0
3802 1 2.06210057615682 17.407991196486805 39.01749562789877 0 0 0
3845 1 4.58733547184918 19.098943355582804 38.99482427255253 0 0 0
3806 1 7.201862383046981 17.687167317302034 39.103216568188806 0 0 0
3849 1 10.035096876638834 19.05627627324218 39.010156304417514 0 0 0
3852 1 12.677332837404457 17.633387370938955 39.00304373857984 0 0 0
3853 1 15.322071154062051 19.164335146303166 39.02842391167316 0 0 0
3814 1 17.79329595214462 17.60860659296324 38.98184766205916 0 0 0
3857 1 20.275997891585092 19.008748231429344 38.95738003573314 0 0 0
3818 1 23.02968325328572 17.575607136751515 39.023097415788875 0 0 0
3861 1 25.659450049859146 19.047669408319862 38.92113140669336 0 0 0
3822 1 28.26227310508347 17.39850495104662 38.94127127395312 0 0 0
3865 1 30.90569018592036 19.115634779970254 39.020494346135955 0 0 0
3826 1 33.3268034326027 17.553670898698744 38.91092017406705 0 0 0
3869 1 35.92795448267296 19.122411162736384 39.064295452626176 0 0 0
3830 1 38.719607736803454 17.538316161714278 39.00483252544265 0 0 0
3873 1 41.156033806449784 19.02623899462155 39.04659938240261 0 0 0
3834 1 43.900565399594896 17.62474888413361 39.07180015146719 0 0 0
3877 1 46.408581959914244 18.983784855917186 39.03984245934187 0 0 0
3841 1 51.54582227920666 18.971821001986903 39.02048182299302 -1 0 0
3838 1 48.97516405305065 17.49998934814645 39.075975637086685 0 0 0
3881 1 -0.4574982527429938 22.136735023607006 38.96105902291914 0 0 0
3842 1 2.1717362325263254 20.537544513331646 38.93396284880058 0 0 0
3885 1 4.701568604596159 22.13550763526105 38.88892991682392 0 0 0
3846 1 7.3478725365659185 20.534172141525257 39.0407554685908 0 0 0
3850 1 12.532011460739776 20.730757618728283 39.04586902918018 0 0 0
3889 1 9.948197671079406 22.025072024123176 39.040028833579974 0 0 0
3893 1 15.118179879622502 22.06149414577886 39.01497796441334 0 0 0
3854 1 17.726942898370943 20.60713302262432 38.83351899723436 0 0 0
3897 1 20.52877415024521 22.1436858584204 38.825402895665235 0 0 0
3858 1 23.15469073774643 20.477387791355312 38.94613661502579 0 0 0
3901 1 25.707495892719013 22.06593991873972 38.73481078591999 0 0 0
3862 1 28.318521842899692 20.407515358110462 38.900968459348945 0 0 0
3905 1 30.823199218004248 22.153356147496993 39.01674251042962 0 0 0
3866 1 33.33805981837648 20.6810617508831 38.98901200605239 0 0 0
3906 1 33.57231443175874 23.46045615531247 38.94264197018542 0 0 0
3909 1 36.01004534097946 22.027722734157354 38.908615311904 0 0 0
3870 1 38.61561630712782 20.65730352752002 39.00492351440102 0 0 0
3913 1 41.256769396727805 22.124214239863523 38.86349079382759 0 0 0
3874 1 43.727328190782345 20.544483877180415 38.962960341162024 0 0 0
3917 1 46.41906039647736 21.892068197745182 38.98895107694512 0 0 0
3878 1 48.93271694526919 20.46341651041787 38.99550002332599 0 0 0
3918 1 48.83761336671459 23.4134765775806 38.96779614177057 0 0 0
3922 1 2.0989633965541445 26.500296062868554 38.97219804484404 0 0 0
3921 1 -0.45906625461357464 24.959369557290373 39.04705646304383 0 0 0
3882 1 2.1546930685306607 23.65092933900755 38.97824089694807 0 0 0
3925 1 4.818790549565191 25.034374870098144 38.970203349253076 0 0 0
3886 1 7.4161791334680585 23.540837723274176 38.936524417911514 0 0 0
3926 1 7.444525864285592 26.43669439564677 39.05602055641744 0 0 0
3890 1 12.606581719387169 23.529071899235404 39.1097410507282 0 0 0
3929 1 10.085581751254438 25.075716166851677 39.09491922204133 0 0 0
3932 1 12.527066528073918 26.47165074251493 39.15205474406052 0 0 0
3892 1 15.162574786514478 25.0706414756988 38.84252648669667 0 0 0
3894 1 17.815628503435637 23.595238859424956 38.810237852073385 0 0 0
3934 1 17.75253832896655 26.508382146347937 38.94043932996019 0 0 0
3898 1 23.078223568223375 23.574568850508587 38.8766209559397 0 0 0
3937 1 20.547915548252643 25.093500118124627 38.77732814844946 0 0 0
3938 1 23.140717408690445 26.589391039844333 38.858054789529604 0 0 0
3941 1 25.62897916216727 25.004578756878892 38.875380265318014 0 0 0
3902 1 28.316986658422177 23.64540981021415 38.855682055433476 0 0 0
3942 1 28.31626402827824 26.528042259667288 38.98703608354799 0 0 0
3945 1 30.946371246881508 25.0081643324603 38.90066437295047 0 0 0
3946 1 33.46552585168601 26.597100784549937 38.89811952047159 0 0 0
3949 1 36.08697067233058 25.042702465052972 38.824763693208034 0 0 0
3910 1 38.55876777442268 23.551998395538092 38.99368405794088 0 0 0
3950 1 38.669412535757445 26.660421268708227 38.93773771685843 0 0 0
3953 1 41.21965819617823 25.10437287812755 38.92188821352689 0 0 0
3914 1 43.82403662508244 23.58102023089135 38.90273439859958 0 0 0
3954 1 43.93779925039124 26.672446725475478 38.926470342365256 0 0 0
3957 1 46.3753651844131 25.118936214202986 38.79321847571758 0 0 0
3958 1 49.023559310175955 26.440249614691897 38.924790251563515 0 0 0
3961 1 -0.4201887143125447 27.944689300081897 38.8454648738218 0 0 0
3962 1 2.239721555195304 29.340831907325295 38.93731849218714 0 0 0
3927 1 4.679539257628051 28.078344039796406 39.02088724619073 0 0 0
326 1 7.238871578967366 29.413381692845718 39.20007721359508 0 0 -1
329 1 10.103072291318876 27.99700857777215 39.09809390248886 0 0 -1
3930 1 12.853481145667526 29.400506170544396 39.002732467002026 0 0 0
3933 1 15.23655949952417 27.858670765052537 39.05046195454201 0 0 0
334 1 17.80094128041161 29.501387146951217 38.85859862543145 0 0 -1
3977 1 20.46156254217492 27.96129567975197 38.92321703621186 0 0 0
3980 1 22.87177755019008 29.435596164568366 39.02060967331047 0 0 0
3981 1 25.593267378768335 27.992790205842084 38.76142215070614 0 0 0
3982 1 28.219184000147234 29.452777807577505 38.99928362670926 0 0 0
3985 1 30.775653246674743 27.94228690152405 38.9239296743677 0 0 0
3986 1 33.32795229411799 29.37785385289766 39.02765486763128 0 0 0
3989 1 36.05970015014621 28.020978718108715 38.847787496362486 0 0 0
3990 1 38.70584291432296 29.586517410234265 38.84465027635227 0 0 0
3993 1 41.3196215295403 28.17645404642291 38.96990320183244 0 0 0
3994 1 43.80196685290973 29.631160162300162 39.00739223693606 0 0 0
3997 1 46.44087119551739 27.983860879110665 38.87732961720895 0 0 0
3999 1 48.91852426412248 29.417066006471686 38.92316041537003 0 0 0
3601 1 2.154033912246301 32.32001570099301 39.14251727844466 0 -1 0
3638 1 -0.34645956769212216 33.77355562456633 39.12952372504103 1 -1 0
365 1 4.77415662638779 30.912163201125786 39.027982709875886 0 0 -1
3967 1 4.859390082403815 33.83557709473395 39.0678462127778 0 0 0
3968 1 7.343095576602211 32.3363129984527 39.2414950635227 0 0 0
3931 1 10.191265952674486 30.82344839575729 39.125390222186375 0 0 0
369 1 10.055422786609304 33.66210508731424 39.16298844015648 0 0 -1
330 1 12.58148602487475 32.191334358971986 39.117025514951706 0 0 -1
373 1 15.17913560996813 33.580380940592384 39.14862529600058 0 0 -1
333 1 15.260994839073867 30.821607358647682 39.116152683036546 0 0 -1
374 1 17.83839118583552 32.309021253717695 39.04539887964621 0 0 -1
377 1 20.30010784947342 30.805085366415426 38.989212259892334 0 0 -1
17 1 20.49406548473996 33.72207970890806 39.01361520982321 0 -1 -1
378 1 23.093404057402594 32.33060676965222 39.07709293305039 0 0 -1
3978 1 25.680899792901815 30.876483603111843 39.143798576583315 0 0 0
21 1 25.504032388290867 33.80081472194161 39.15979976850011 0 -1 -1
3983 1 28.258865137917947 32.286532609072005 39.087720197366345 0 0 0
3625 1 30.9179931355444 30.903495769502435 38.93195371768155 0 -1 0
3624 1 30.78859132247152 33.714518563890735 38.778906579916416 0 -1 0
3987 1 33.42559897562194 32.344660734028835 38.98573521451513 0 0 0
3629 1 35.98159228113322 30.995931286214876 38.922494153196496 0 -1 0
3628 1 36.06454487353771 33.6725784997788 39.03623897591982 0 -1 0
3630 1 38.525476703795164 32.4641948283647 38.998600893597555 0 -1 0
3633 1 41.161095105974056 31.15615943644729 39.070300326206514 0 -1 0
33 1 41.13149685644693 33.88321729208018 39.02766786043872 0 -1 -1
3274 1 43.842210416863 32.49461428584127 38.96389258391311 0 -1 0
3236 1 46.43554878549787 31.071145862084812 38.8131995847217 0 -1 0
3277 1 46.31784398322948 33.961295536258525 38.98319122919377 0 -1 0
3998 1 51.51100944354067 30.929280160416482 38.96040169502201 0 0 0
3637 1 48.94238586633843 32.36580025427384 38.85024036673 0 -1 0

Velocities

1 0.7351814817973975 0.39629977225647206 0.09845937860377527
401 -0.513394619073636 -1.2862120621792064 -0.808143263435663
438 -1.021799296347815 0.1782999769584852 -0.12721213757899694
4 1.0293152443165363 -0.5281439128082793 -0.5865251220484978
405 -2.2231111984244083 -1.06262783269496 1.346519411426497
367 0.832693855291169 -3.5334423402089477 -0.6885392165641311
8 2.376611267204566 0.49873487553341767 -0.2949976956084133
766 -0.74502393520421 0.4740321878477346 3.3302354537380263
409 0.1489098185407864 4.167412313480652 2.7305234866478276
770 1.0124918060377401 -2.4402894687483823 1.5633581343775622
371 1.3581458994681543 -1.7959990738739564 -0.975891918099931
12 -3.7354030563905676 1.9952610738836696 1.3719314330681474
413 -0.8610447081522077 -2.1704366775673267 5.967292260299743
375 -5.048211943609841 -3.150524723382948 5.80479656816315
16 -1.3256968694686895 0.951683764937591 0.45915717816454454
774 -2.1492006180032854 2.288623278225427 -0.34368522180431027
417 0.5214754098481909 3.346869765752906 1.7578849365050897
379 3.970820867836839 0.3231349511688077 -0.7533892094580914
778 3.4089545846562603 0.8862707082191301 4.36209804158252
20 -2.8692551967587967 1.858239651353114 2.4186481415016288
421 2.400922982767937 1.2945282305100603 -1.313922505004491
383 -1.385616880173614 -3.2386073639644493 0.38379191420591163
24 0.4644813229047309 0.7035873634878284 -0.7505054999104223
782 -3.4004560052878157 4.573835638315061 -2.34727567330232
425 1.9949624267300416 -2.6868354342628162 2.330350660341982
25 -1.7036306148038458 3.2827720494288473 0.8355157585291434
387 -2.6133432288443434 -1.2530380687260787 -0.16057607812152644
26 1.8124759739378289 1.638923811773896 -3.7425900791073357
29 -0.15611742331045064 0.28376725447800816 -1.7538903348958648
28 2.939936710112809 -0.555415402025154 -4.410420626058425
73 2.1600001893697884 -1.1793146523135702 0.30176415729579037
430 1.123288012572157 1.791952039697945 1.7545788096789021
433 0.5511661403483649 0.6259778230809326 -1.1404702976971284
34 2.8238153623367377 -1.2311781962517396 1.3424631034125702
3676 -1.2034175165230994 -0.5178222096337868 1.0870630583874341
434 2.8876679897821975 -0.9276915422582005 -0.19360305967872096
3639 -1.7326314222679193 2.4288765723969683 0.6830545450799506
38 -3.1202217702155495 -2.3690119181092095 -1.2315848390429798
437 -4.967753340119358 -3.711246657376562 3.081398572319217
3 -0.09122800898317415 4.999637670623147 -2.281032457834695
402 1.5175417279323191 -1.6455465690177415 -1.6144346849475908
441 0.022839939560794314 1.4813331339578795 -2.447659169413379
43 0.6076898467308427 0.8943744057262101 3.2862638884515096
442 0.20617571777774596 -1.8453406205096148 -3.236572539651568
44 1.7915538350910665 0.9047328031646852 1.8396729672858865
47 -0.199016784240452 -0.08195748190143587 -2.044009805756701
7 4.313452992311761 0.9561102347136711 0.009108489216426856
445 6.859164848251574 0.5232976307915036 0.3322107803588196
446 0.6142219787270639 -1.0929268307635382 -5.36357309008153
406 -0.743223690307855 1.9908768194056317 1.506960990455211
48 3.19303411570788 2.035346721394212 -4.790411393746438
51 0.689497711029371 -1.5542791034801204 -0.9397682208429233
449 -1.7425229423338362 0.4589501994415923 1.7982473011000757
450 1.1455926467708324 -1.018802971769777 -1.586549028288036
11 2.178851062183782 -0.7467356360270055 -2.8874761264814865
410 0.8357217964739811 2.270441647883819 0.3040940825290344
55 -1.2650014239315237 2.567219585801929 5.476755282461699
52 -1.9751193782187701 2.067708491043189 0.2680251128921619
15 -0.8133466634925411 -0.010049738949339884 -2.9833412337811396
453 0.04904934631911044 -0.6648311636581977 -2.2884327904994133
454 0.11999577039184196 -1.7079305683731474 -1.879835351646907
414 0.09906927038169551 -2.789262999430401 -0.18374216086570438
56 1.9970949701878153 -1.1961870192313628 -3.419185956463871
59 -2.1051345488155975 -1.0216770120021101 -0.6483512749561542
457 -4.377108173657442 2.0869640953469246 2.012043232259646
458 -2.0426094551254947 -1.2648704115744178 -0.8806877129712768
418 1.7620906025127212 -1.442936468732704 -1.9598293261314854
19 1.0086684744401653 0.34380130638752765 -1.8893421333911953
63 -0.6884749655634643 1.0378015666664313 1.6976543229252532
60 0.32911722921181163 -2.0002486683276035 5.705117764101016
23 -1.1880080922597507 0.8814196003944347 0.0266495866085118
461 -1.722035965162259 2.926418812258881 -2.6400604058214294
462 -2.206464996436231 -0.03281541753879974 4.481153673966038
422 0.5202131255313469 0.1596684238174586 -1.7405706312109788
64 1.207170475769708 -1.1464832067421475 -2.32003943619072
465 -0.6652738757604756 -0.11324316563567377 1.0786455089717244
466 -3.315975356794069 0.25230408623945993 1.3582003063920989
67 1.8746023589576297 -0.7951558569178555 4.342163636062398
426 4.098783278525388 1.8151665207863934 -2.78033179758425
27 -0.8531504236363037 -0.9086147365904198 0.7902562690113542
68 -0.6737757031885095 -0.20979638813553292 1.3854113282154397
69 -0.44503600966255974 -0.3848051252712739 1.3233334763278337
469 2.475345589913613 -0.41864981981982047 4.612357844252608
470 -3.7000697091287855 -0.11102626595800924 2.6108344914912203
31 0.4803685940249347 -0.4689472215457637 2.79894377411389
72 -2.0883937092073523 1.9016115640284061 0.2930719216000705
473 -3.4771746667796988 0.21641879922090212 0.1316312169862137
76 1.7918053381220616 1.355168175172004 -1.2371448186751117
74 -2.110431962462532 -0.5745769346130862 -0.6800624969461108
474 -0.631788226031728 -3.139936084182399 -0.031916990342044343
3674 2.586031818731055 2.7664099865493403 0.14822716059870947
77 1.3197813326758083 4.2879156372011265 0.712611644630473
477 -1.7598119741597742 3.041812564645011 -1.824248546857368
478 -1.6360444381484833 -2.099603300634186 1.8600824085641836
39 -2.693300421236289 4.677750083937043 -0.8084416669740973
80 3.8996186201552665 0.540802895866405 0.4092205089107453
84 -2.8904203452739416 -1.926953244356587 2.2031919420823973
481 2.42323359970649 -2.5610240747329565 4.7020358622861735
83 0.7709458161773395 2.8599882228438167 0.27010653459620065
482 2.4701155381852975 1.085923595720585 1.4810718908419642
87 2.7354092922536712 -2.7581865756655897 -1.1399188786722059
485 -1.0377375559447954 -1.6954290537295291 3.044791919753806
486 4.640185868995933 -0.06720818125127166 1.670381813005185
88 1.7178722438748315 0.6447793695647512 -1.6369722553808108
489 0.8416632024750906 0.22833686563764066 -2.0128457737935608
490 2.116541628678534 1.0259262860743699 -4.399700909735126
91 4.664293971076991 0.02241648058769834 2.662161254255898
92 -1.924579998099262 1.9686335814335552 -1.3217948088259002
95 -1.8247016002350973 -3.126140697529101 1.7587291021474667
493 -0.42901702016800647 5.152998237003141 -0.974530519168459
494 2.3282938157180357 -2.498755116778827 -1.4570571034505608
96 0.26659293787096117 -4.149125130973385 4.523441480433376
497 -1.7250935538845686 1.8838218192255862 0.04132704220169526
99 2.6992941668996426 0.6748761329557521 -3.3222449173023167
498 0.9798918652862171 -2.5291228140027724 0.5774521105979342
100 0.6342538675639617 -0.8116953032464369 3.4534297918770664
501 1.8523681619447578 2.221603970963573 -3.1421117411908903
103 3.996274167198316 1.2095191115358983 1.258929617561092
104 1.923247470205789 1.3441884640995303 0.3349035487604787
502 -1.338172728075751 0.41222766241275194 2.0423262143368217
505 -0.8665368167891616 -2.7087747292521867 1.9759367883843042
107 -4.877978007680164 -0.2924306088447721 4.318552065421233
506 -0.42841035728199667 -1.3091935751615895 -1.0957502224271412
108 0.17248468588249435 4.087418395503458 -0.5679472664201405
509 0.3421984427421669 -1.3782321963253832 1.9105068295553498
111 -4.600257557978401 -1.7293061147475814 -4.19138014614636
71 -1.955204041039437 -0.6882411939900028 -3.619879218479187
510 -1.390809210772211 -1.0136950006740817 -1.3738026828241372
513 2.6109762248355035 -1.8978735172256562 -2.865545560098706
112 3.315882590747682 2.1127701946938227 1.8373361397573609
514 0.6454642868764485 -4.734546479259473 3.509290045441474
115 -0.43693496600790244 -1.5367606378718954 1.000849597357497
75 2.2068126243296575 0.3927384202448928 0.3917781088648642
116 -0.7755883910019604 1.6650591978197906 1.8746468436807409
517 -4.116934353533528 0.9136049374697801 -1.6550120030679638
119 -2.5416844481653476 -2.871944661927569 5.618539038916297
79 -0.693518973516971 -0.449416210035736 -1.010732314614455
518 -1.4043953284414579 3.158473715939138 -1.2492217399315904
120 -2.7060118766336707 0.6680939332673083 -0.855821175764262
522 0.012694256855915501 0.051927734816951454 1.0750146113952324
123 2.775482050385852 1.3651060577190481 -3.2133025244869295
521 -0.676266516073895 -5.061042619157935 -0.2771200204107917
124 -2.873568861743067 -0.6883442087448652 -0.4589458225383928
127 0.6467682425103873 -0.12525907676676126 0.45545342504859326
525 -1.3821438067075342 -1.515460183459173 5.695086403679295
128 -2.0134393384473617 1.7066766759560468 -1.0809003703440445
526 -0.5982302360875663 2.783767055173433 2.7652201213914744
529 0.8203060449973186 -0.06420508734712839 -3.0220783488304046
131 1.2813317911031024 1.731204396202315 -2.8045316802035196
530 0.44477382790323655 -1.091292928936273 -0.985367078378206
132 1.8597028985947823 2.1992123451098564 0.024523915566021383
533 -4.186325520605967 -4.475737084647856 3.807856409112449
135 3.0705682812032578 -0.8955808978709945 -1.8318762130184987
136 2.768895401644508 -0.023926044180980946 2.620799561670951
534 -4.979523935999283 3.317963139950352 0.01855524345723544
537 1.7562592978022704 0.8107196082243415 -1.4083123486501845
139 0.5801147986520454 1.5614101858150224 1.4991230084510978
538 -4.506289649665768 0.6851572347821882 -3.853573113267099
140 -1.3425024781124697 0.16066007309558933 0.49347325823585786
541 3.0232586146239337 2.61178412021554 -0.7419977885805374
143 3.362628338325131 0.33525365660606565 -5.668734069750452
144 -2.35660312846911 -2.1855636295146144 0.028535195052089003
542 -0.9273603570023898 -1.5076906152432792 1.044632687042571
545 6.004792392683506 -0.9684098613278179 -0.08767683746472354
147 -0.9956007196336719 -1.1696707717300878 2.9873805823153954
546 -2.2176932902287354 2.472723114606509 -0.7946149493934367
148 -2.870289512950556 -1.230808410674312 -4.096562708805331
549 -0.3126128293699348 2.8878542489572006 -2.131999957361216
151 0.5185878773559631 0.26607594499468584 1.5908805239185155
152 1.3484167242882554 3.5763090821316523 -2.614311231927642
550 -2.5605646569259486 -1.5368659877809838 -0.2449419384811596
553 -1.7577664046686328 -2.5130109201092954 -1.030930524802335
155 -1.6011319010590426 -3.158773782533831 -0.6396598340025258
554 2.60586355374532 0.07808527779602921 0.0400647055259754
156 -2.9068781101629426 0.5496779200278527 -0.35765286638553473
557 1.7038442419422264 -0.13774968291815062 0.04522171857105785
159 -3.243781251210925 1.6584540754666084 0.27218410703679835
160 2.0697217851540444 -1.850419916145269 0.35748572325456107
558 2.412214666960869 0.1353449148981044 -0.24454019131219182
161 -2.0896775576761244 0.4617871677588272 4.642351032393117
164 -0.3456651948284542 -2.1157132509129295 -1.4588062819697303
561 5.346331244470918 0.5536712426314534 0.11337004178047502
163 2.3776727698991516 -1.8249901743533608 0.4747694792647775
162 -2.3847818165354666 1.8055517940552943 -2.081251324904856
122 0.09014909949886567 -1.3684028599555913 -1.3501685919542077
565 -3.3738136062055104 0.9217365492809432 0.8522414932275085
165 -0.5865176385548753 0.6496108579822554 -2.0428531206136977
167 -2.6048497291742567 -2.3199373950447484 1.2264866407575832
168 1.1166614638504129 0.07483960474832187 0.42552888936930555
566 0.3781036404807556 -0.1294570904499372 1.1935150635582372
166 -0.3525265838679413 -0.46617130981118277 -0.9104894789541512
569 1.8689036673976116 -0.14299913943629391 -3.0207897549927223
171 1.1614350347537532 0.8676207114385418 -1.1611892495566025
570 1.7070313405224173 4.5664409468083065 -0.11622810610615886
172 0.515233928815052 3.2149978384970987 5.891788899176496
573 1.9854136547891543 1.9969082546812769 1.5119724580051335
175 -2.4545362134890953 2.389886720029449 0.26071037559155896
613 -1.5695588769485331 1.6081683621826648 -1.8212368686381937
212 -0.597034733523059 0.13316121093746383 -0.4189299349028827
176 3.0746546539529627 1.6693751831994212 2.3158974567247994
574 -3.746783231608815 -1.7561550308871299 3.259005723911924
577 2.377122217762499 -0.18502975955540693 4.4408894922831905
179 -0.5969898258180594 0.43595666158351665 0.4180398527369274
578 -3.5892506255607968 -5.248871610303906 1.9377262128989203
617 1.1331702449603704 0.12916353039710035 1.8400739111823794
180 2.899900235980336 -1.4016591316052935 -1.185812959995216
581 2.314466000638668 -1.454673505088933 1.1766771592777299
183 2.53386121214777 -2.5828501881108425 -5.74278647748136
220 0.7967528710940005 -0.3328855510090814 1.480418472663112
621 4.96733664982794 -3.378539334070123 0.6761458140850513
184 -2.6928211903298624 2.6200547224732946 0.2924271753937448
582 0.2301010321154256 -2.1588900161817395 0.059929591691874944
224 -1.339931822405019 -7.254774812403977 -4.175910518580377
585 4.74389433428121 -1.6546551088354864 -0.788480783619038
625 -1.6432234702516393 -1.963737472119194 -2.080047259437197
187 1.3162592684217262 1.1163941961000612 0.5671040688687172
586 -0.9199784705281361 1.254694176286395 0.8756466240748276
188 1.2249869500260966 -0.6569894538751074 0.1551896004300588
589 -3.348573034569615 -2.8182033474896864 -0.38894443345628765
191 -1.1110089572972943 -1.7170342354607004 -0.8189315389782412
629 -1.5326720895267396 -0.06700772322064705 1.5189640209578426
228 -1.2461391019169552 -3.1844616555313263 0.2893732377851276
192 4.081389281249963 2.805387906799111 0.013893469607026131
590 0.5958864005601493 0.48577099461596873 2.603458049064051
233 2.7759354548500363 0.7668729326459065 0.2709570788829484
633 -1.9279544490756733 -0.567750997716976 1.7893535384565749
593 -3.8596987389710447 0.8353645013174887 0.4644641959703294
195 -2.1163625755441102 1.2894530325658082 -0.6934680715782133
594 -0.3886885444553453 0.7842810714819348 1.036684704941454
197 2.491952236349109 -1.338782983473587 -1.2213505987179263
196 2.097407104005469 1.3984413796674795 0.5319029880183291
597 -0.8708577449617241 -0.9786471142723026 5.5874612891321735
199 -1.9720183209072633 0.082297707763306 0.29394711641912846
637 0.35147546896719933 -1.9768394761907697 -0.053289411394530105
200 -2.903484885439426 1.294581775825024 0.8100042503862968
598 -1.9646190829479866 -1.5992914758540293 -2.3946436285935553
3800 -2.3394129125312344 1.5214657031088774 -1.357882616285181
3763 1.563415627448857 0.44935895236590906 1.2846441157308441
202 -4.049634353433876 0.6644811845691924 2.9167375669726643
3804 -2.1438613172982 -0.9593830184121362 0.10938458131769037
205 -0.9867815237686967 1.8121082879184383 0.86452015083688
207 -0.19394964692785827 5.654798517033056 -0.7868704790114104
606 0.5747750444198911 0.31095166610648867 -2.017228193806024
206 0.15035505768311339 0.6777772309215884 -5.442431636472412
208 -0.5402356078107666 -0.1039882199168968 -0.7224985424304691
211 0.8959575964618315 0.16254224998280772 -1.448617827211419
209 -2.4993017836616525 -0.11379808665013265 2.0798222728290443
610 1.8723425840283174 -0.7949468120860009 -2.9823542000055303
210 -1.6810522263250767 0.3205670229259837 -1.670473299728105
213 2.7574826481214836 2.000490948166479 -3.0376939435779335
653 -1.1662478147575879 1.3082639657275226 -3.91564445074682
216 -2.0849208602354063 1.2346491090740743 1.8466161745841723
614 0.6196875538883319 -0.21473508888840118 2.2816708816871993
214 -1.2466365743202832 -1.966274017063036 -4.218436629223919
256 -2.33257409580015 -3.804636403967883 -0.15238622987560277
219 -3.326593591651339 1.37951950554178 -4.0208981699047195
618 0.7169508912687884 -4.90127328151675 -2.796808765327966
218 2.6367103266844754 2.4523175466336595 1.2522771810302913
223 -2.9167758975023124 1.2825594745712297 4.950744667405498
661 -2.030577130884618 1.3463283747662287 -0.6668878444218597
622 -3.0638895162630155 -1.3754057473712287 4.338352640776909
222 0.021819637416325664 -1.088063206364348 -1.4100029264685672
227 -1.2329308956114808 2.912915977044787 -0.8746272140203599
225 -0.42192919379161664 1.6482783147531164 -3.827934458864014
626 1.9751548958152398 2.2605023979753116 -0.07869912037191445
226 -0.27730152573517597 -1.807711478736035 2.0862559402687655
229 -1.7315179160514544 1.9293915083133228 -1.4904822386351708
231 -0.6836205128938859 -1.9517769486062742 -1.9738929835128314
630 -2.0124325209122946 0.10396014576108936 0.039574402088872196
232 -0.9770045495471609 -1.1362141237935297 -1.893767774335533
235 1.0115460427162066 0.3897828773939168 -1.260240955239922
236 0.6619527176920668 2.053523033198401 -0.5984956078974161
634 -2.6102902434671638 3.2650512508612524 -0.018369268428701294
3836 -1.3749982343975329 0.3520105637850098 -4.995741100752601
3799 -1.0149354244081088 -0.5527601080423462 -1.6282605322969275
237 2.7154575876735403 0.631813607291218 -0.04518854101339109
201 1.196107860533359 3.292631324278235 -1.1768684464182262
198 3.589766481286626 -2.8521305751830757 -0.7395751049793177
3840 3.429473827629562 2.396446036704278 0.8797373947151115
244 -2.2615369573734143 -1.205559985916255 -0.45001292473477283
3803 -0.2612105663905466 -4.0164173182161065 0.09039752479036949
3844 -0.30077509330432045 -0.5277567288526258 1.8926549100880852
3807 1.2863206069778106 4.256889971678444 3.7455899133634447
245 1.6744339912555106 4.118178022681914 -3.06745265447823
248 -2.2844499926170645 0.4176959638032674 1.1115716832842186
3848 1.54938117160104 3.6276732079766543 1.125388748807566
251 2.082585035967278 0.791357870612942 1.7760561311538985
249 0.9749062581694329 1.9246578681187132 -1.1420274912109174
252 0.8363864253621757 2.9715135648026836 -1.099602222740737
253 1.4014144064974585 -3.4544431696553963 -2.3032841762661507
215 -1.5811348609733304 -1.5412536197785667 -0.2722792438916056
255 -0.6776882494541848 -2.7405682340823216 0.618278248185253
654 3.823961313714943 -0.6160962625830505 1.9665946547462803
3856 2.911467605194095 -1.67267706297868 6.130924237939264
697 -0.984668391563287 2.917084902795224 0.6856775028840819
3819 0.48734019889921265 -2.000202218834478 1.3384680781431533
260 2.553985404458326 3.0444069478591946 0.7303876418061931
3860 0.6895103269840779 -3.2340152175857413 4.947092197886619
258 -1.7978506925343554 -0.27500719030625265 -3.5387977014938805
261 0.35330873030241533 0.03060146793502884 -1.5652518915686915
3864 2.5436866532590465 -3.0779367614492688 -5.032760149676179
264 -0.5278688610444907 3.259469526378831 -0.18949649784788758
265 -3.0635204737092403 3.43042154821836 -1.318130657541516
3827 -0.03545190559070003 2.2293232142035273 2.641433617006943
268 2.0448441300390803 3.7980140776864957 0.6048571119650267
3868 2.9142907847355684 2.8393532840596607 0.04999340850582817
269 -3.3971145321252694 -1.6259266584893732 1.0447971808858494
3831 -1.7568721964610765 -3.0251887014009387 2.417818802147819
3872 -0.5653620389760121 3.5036760040860337 1.630740462175583
230 1.468735968217495 -2.7936982495589957 2.190089829133541
273 -3.014067063457064 0.6995070546999897 0.44478638790074243
3835 0.30849744784707706 1.4944582826086374 -1.1350333967894057
234 -2.137019236005331 -0.5203442955202954 -0.04227574628157483
3876 -2.1084089518851896 -0.940789774933462 2.812854907378386
277 0.25925998986764526 0.26318751655920264 1.8543199470821488
3839 1.5457280525705335 1.1147037698420503 -2.3508566522177645
241 0.24259596126181748 -0.021501002132801896 -1.6118319206376224
238 -3.5779425116615253 2.776084866336964 1.2249817267544199
3880 0.04356408071810915 1.99270874918837 1.2205403944897744
284 -1.1466160693318126 4.125779015474513 -1.7454160579933278
3843 1.4333424278235372 -1.5582556161681167 2.7655335834740002
242 3.0156676192521013 -1.9111356703101974 5.571816051896628
3883 1.5353987923677965 2.564272691362935 1.92050386682272
3884 -0.9344270403823892 0.4185212330918916 2.239257380565583
247 2.523346804272503 2.730267956800111 3.2992447537568816
3847 -0.054731999311516864 2.222021225976314 -2.360475181084994
246 0.8910511810156194 0.852491623497367 -1.8814994117932353
3888 2.614020670298897 0.5690832811391269 3.419648079167805
288 -0.23259454318116704 -0.2334660378676445 4.282336414787716
688 -1.03460259980003 2.137951024844985 -0.8770849256647045
3851 1.9351908737568342 -2.490326071797648 -0.29562485089232327
292 -0.20444618084854496 2.962985109091751 -1.4367024358666738
289 -0.1013705565819237 2.854193043440575 0.7657446975885864
250 1.2767834406240426 -4.715514860594904 3.662020758991582
1050 1.7422817691380188 -1.0932043991861164 1.824672232695635
3855 -3.3003482343066834 2.2892377120880814 1.8510245613462197
293 -0.5611405307040831 -0.4829411952991955 -4.012755721241266
254 -0.6263336289529607 -1.830816962453401 -4.036575280550924
297 -0.27827499207004996 -1.6503390938803846 1.9091045411119498
1093 1.2936805086741792 0.7831925171922376 3.173041089112224
1097 1.6151050356780903 -1.4932714125139928 1.5161070889860975
257 3.277693489282346 0.04540133056538231 -1.2806498611444241
259 -2.6911496573715947 0.38187564109634686 -0.19696040864843653
3859 -2.5262048486796695 3.8143548124859867 2.418921223965093
300 2.6394398981718137 1.235475044749409 -2.6200388134794963
3900 0.6494188329990751 1.101051574149708 3.7285290570989065
301 -0.7504414877091312 3.3465164676004733 0.040660753246302646
3863 -0.7975538764639449 -0.48121997251995335 2.580021727045976
302 -0.49310789976528885 0.5367596356630613 -2.368336420602261
262 0.7708980897709613 0.8323983432665736 2.4515696799533435
3904 2.3705291960453825 1.1055228921816662 -1.979808737156619
305 2.298767144478938 3.4169973504146136 0.41126096258780287
266 1.0967223193133357 -0.0007943677829664825 4.835680020236192
3867 0.9509106002311444 -0.16671942978478616 -2.806572613758037
306 -0.9673735049686957 -4.6625907790580055 2.762483161250952
3908 -0.16543055444897228 -0.14656233154959922 -1.7958378460892983
3871 -0.3407475667161576 0.2754696887802208 1.5063896134517947
309 -0.7415424277498661 -1.987859199569881 -0.2870764924089872
310 2.02888244482458 -3.0571280568291304 -3.6690722753483764
270 -4.047169828281651 -0.017821095745926278 2.9667270868708835
3912 0.8473498749437469 0.557537658450175 -3.2648824378597574
313 2.6190127710797295 -1.9223788703879927 -0.4647034691409909
3875 -1.4754097200064893 -1.6912512515147362 -4.3272774519850845
274 -2.541412389988948 -0.4154814961087629 0.7892010386437928
3916 -3.541590597282339 0.6995669526877092 -0.7499647920614131
3919 0.39981237573347334 2.02667061484228 2.501491286058581
3879 -0.8318466221442429 0.07924196934207305 4.511925827305922
317 0.9377024702697783 -0.12042844828988788 0.4568496457226863
281 2.971607939462564 -1.5104475347552808 0.05318131278701204
3920 0.500532481336994 -1.3817938605767537 1.8676347257152834
278 -3.4548483052672774 -1.6369020603539186 1.2827885892237898
319 0.9591923060650185 0.15848652821762 -1.493617079296268
3923 -0.5586809055378943 -1.1686658172586426 2.6028859072804194
282 -1.8070025370849152 0.5769728065275151 2.0575803536373187
3924 -2.3958276617003214 -2.7186550185495157 1.9110816999907883
3887 -0.6110223284005896 -0.17996507723913452 -0.4959834668407427
325 -2.2075135570255493 4.63846413652663 -3.2897165443516863
285 -0.5750477209166789 -0.7732479968672541 1.4709761906288565
1085 2.059275834560443 -1.8684406038581414 -6.508308762729849
3928 1.8268159151643328 -1.295455793439234 -0.5488099156925468
291 -1.8368178876287222 1.0686692269179756 0.7704066147025327
3891 -2.615825928090004 -4.427508509133112 0.02527288587279262
691 -6.04890205527105 1.885603305650738 -1.4722799800370143
286 -1.244258173494978 0.44404253141152056 -0.9083393675934031
3895 -2.3564844428340286 1.2610558517728612 3.4903394341213203
290 0.35967802347253913 0.07388127824939877 1.0228865279774795
693 -1.051847197803513 -0.11019425118210435 -0.8739854756909852
3896 1.1547247767457414 -2.21753740101885 -4.0008389286569255
694 -2.38512550522984 1.1996633473243914 0.8095041878883464
296 0.6052627479819833 0.8861707070326066 1.2975818141820488
700 -5.134236787324373 -2.159858126581542 1.9281092425640391
3899 -0.9534012572757217 -3.4596999196372074 -0.6303251568724307
3903 1.6208931368154151 1.817418299717015 2.2914038162811816
298 -4.728145945470653 -1.2470751940133065 -1.9016066730768317
303 -0.23707792856375157 -0.7307817338579977 -1.258568340445097
341 -0.8687915132569111 -0.48430313126248903 0.9323405255012156
3944 3.1997911829767895 -0.03511430125065236 0.17332195374785442
344 0.45780707116670066 -3.186290570601723 -2.2908739190122245
345 -3.1788886583715388 -4.462845293819286 -4.072188049038668
3947 -1.5165844062013725 3.134194856953378 0.5498083065436921
346 -2.6562562239078242 -3.7746872751301352 -1.7651816561256841
3907 2.728421378993729 -3.595910313309895 0.0734056533723351
3948 -1.9032281201567944 -1.5725778537977781 -0.4081681521971183
3911 -0.318127019981119 -0.6189099724522446 -0.9843144125766355
349 2.2537687866690055 1.735371828857017 -1.0355184418765606
3951 1.169208492507807 1.0044620196045808 -2.058270077805724
3952 -3.3753754806462024 -1.152815508519643 1.1380612454461652
350 -2.166174365520048 -1.0389152408247615 -4.019490581602115
315 -3.071183825965571 3.3286517549928742 -5.0291424264395355
3915 -0.08502761585342547 -0.863409930407679 -3.1297689612645145
3955 -0.35934419497707315 5.883430626973432 1.382357863684209
314 -1.3604667179787122 -2.1788086770796764 -1.4535227148884708
354 0.15325774344948942 -0.3902961146897443 2.4389355427815884
3956 -0.34766916354203775 -3.078091989830123 -1.1513554552023713
714 -1.0365248444911488 -0.5940147706141511 3.2072517708559976
3959 1.9776675179858194 2.072041009232376 -3.339058903535163
318 -2.1126761940447136 0.2869276917343091 2.153005415617421
3960 3.137907704867283 -1.7676791349352623 2.4848793732561205
357 1.496954848049244 -0.8360562986134841 1.596819974036754
3963 0.9007215323594047 -2.183902367112898 -1.5212870088046944
361 0.39057809563006884 -3.232768424773508 -0.9242995573921586
3964 -3.9732321545640943 1.0908406824751495 -0.08234685156122777
321 1.3012555332814866 -0.035104227777855886 0.4687402047267494
322 4.135585876582281 2.1261599349236615 -1.6009196235560477
287 0.45341285416313043 1.3879730061589677 -0.5621370584363178
725 -0.04234779174807912 0.2964321429255878 -0.06897580887979617
686 0.7584757623899634 -0.14724792666572234 6.403931591619481
729 -0.16007889696313318 -3.3193729589761762 0.48457655733945576
332 -2.4541119367105106 0.28593974317759874 0.6559432467819778
732 -2.4983558807368 -1.7538702226636533 1.0705175169949166
295 1.6572190402939055 1.3144662647490934 1.67871205192398
294 0.4143977610178595 -1.5784754305659914 1.9695334933197668
695 -0.23434449452938444 2.6764023722111236 -3.7277259802248466
3936 -1.4691564395222712 -0.9239811009928307 -0.4118747196098401
736 -3.0600822776031276 3.7643222827666483 4.629936543418658
337 1.2298003978811203 3.652351922306358 -0.6093875088646815
3939 -0.2232002387735659 2.813803571685648 2.1108415398585496
299 1.7203567066616945 0.850275993719559 1.5516446458535553
3940 -0.27419718839285107 -0.6898718426733833 -1.2466068928331524
3943 -1.2509800385389223 -4.812001310499589 1.006296229868059
698 -1.567627469110622 1.7458470271700064 0.23917222246437725
342 -0.9374908614716733 -1.9751306922970762 -3.1937825706091747
742 -0.44521070792175094 1.8247417228584741 0.48655356704703473
745 -4.493237701572046 -1.027215156208563 2.284559029898543
347 2.6807275201580123 2.20471864013723 -1.4647997727648643
746 -2.748493498804755 -0.5157438406853424 0.4394542984577853
3988 0.3203087056003863 -0.9977576517082174 -1.7018367738113376
389 1.437403480925588 -0.9810168439539447 3.100681920554204
3991 1.7706813403436523 -2.1266300441880306 -4.648426527885457
390 -2.8455142894062417 -2.2777015354037626 -1.0853266720683539
3992 0.9954798947936438 -1.3918783470452172 -0.32007860798555277
353 1.0744897175039327 0.20494277664235688 5.183821454799066
3995 1.294139674849857 0.38808773961008763 -1.9086669328624226
394 -1.2141961469751235 -1.411538665361806 -1.8365093669503603
3996 1.2297875963554128 -1.2001841177031936 -0.16027041766640088
356 0.8625598441890682 1.3052042532283916 -0.5191819008199279
397 -3.1360355610575033 2.2325244793541796 -0.3789915401654337
4000 0.6723532095156859 -1.6394300783400981 5.196256652118674
358 1.1277809492315853 0.0736879348782995 -0.5183244906248707
398 3.8961983943764555 2.026852391203697 -1.2399030691305517
363 -1.3760329361221864 -0.9806200732490024 -0.679805343452643
762 1.2622374462894577 -2.5649802621158475 3.5263572877184077
364 -3.2129648950008014 -1.4884740375751502 0.255804209440254
362 0.7173311972933785 1.2416756504412583 1.3832434984709339
722 0.966759337252496 -1.3498061905554595 -1.7387188920733265
327 -0.8800699796410058 3.068511302537108 1.6634255069688666
765 -3.2992797725830183 -0.6805694160213577 -0.5790026663572796
328 1.023098036145404 1.9578741234094008 -2.507713220098595
726 0.11799037236567973 -0.8200275663565493 -2.5597124610821482
368 -0.23512304110661436 -0.7942077081227923 -1.4795377109714205
769 1.829378634351542 -2.452898256757557 -2.314219278385907
331 -4.575738963503557 0.39762195734559663 -3.169554942143295
730 -2.373341916976961 1.587713758192974 -0.65251382981118
372 0.6839016290119518 -3.602427374752538 1.244374615013817
335 0.7539640586155792 -2.9212967821852094 2.6593420389407685
773 -1.0131547844762845 -2.4416772343142648 2.1384630827093165
733 0.08021670432995165 4.2000746693046915 -2.2767201754899076
336 -2.9196033511497195 -1.6147213506776954 -3.38005099912649
376 -0.3293209593593691 -1.3891839849477892 1.2671314977873214
734 0.29486124432314514 0.671845585745748 -2.077428692683957
737 -2.3021660893305187 1.538577001082994 -0.09591565948113079
777 -3.3720986782220765 -3.313382018421546 -3.83813863151114
738 -3.8830900315812733 -1.0348097256644362 -4.378231092562149
339 -1.3301815878106351 1.3557296078649819 3.4717737120308203
380 -2.137957554541533 2.2310557973969467 -0.8757588518968635
338 -1.6464284913813776 -0.5004548051285655 -1.4190288216404134
381 -2.2055702052931636 -1.668183480797753 -5.072997911108136
340 5.036862845501074 -1.2220725588247783 -0.39837542786087904
781 -5.088327208145644 3.5919138189879303 0.9836619304137477
382 0.04361166127469373 -0.9471982602874136 2.7221786047242
343 0.2887427209001529 2.6690423473113785 0.5920944547043938
3984 2.398624331770609 -0.40511556009143646 -3.095443618827372
384 1.0345796966377414 -0.7028456819751151 2.572112342916393
785 -3.0994365349550166 1.7767230200984785 1.8264661751919447
385 -2.1157673055895483 -1.1182874057361372 -2.429335446169219
786 0.3010612103529925 3.5103116012494096 -4.06609574533324
386 5.941553258341274 1.6966246138369496 -2.7285772705196654
429 1.2840774060884526 -0.9680795878883991 3.076547971705847
388 -1.5006457323252884 0.47062125842626756 0.5312074618027369
789 3.048065738383065 -3.6330730494345578 -1.495248715724014
391 -1.7487500541652203 1.3657203042617285 -4.091890945265773
32 2.9073828917666 -5.08811672295242 2.159083518871675
3632 -3.183838072788282 0.9379534774115355 -3.5995893632168676
790 -1.2188611593041567 -1.250016020953495 0.1968946395006981
393 3.9786404727688125 -3.1587403326935815 1.1525801912011033
35 3.533348725326036 0.5577588957459572 0.14703703920994943
395 -0.5691508478648065 -2.3785715662397324 -5.535536919907074
3235 2.4223033231129873 -1.8367042752788276 2.2730544958384837
399 5.197536380066893 2.1913958997078424 1.5820452441222272
3634 -1.3472734583846133 0.7135698232356877 3.895672668049836
36 1.0152452024326173 -0.6937329284077597 -0.9291176075719711
3636 -2.64869085443394 -2.4186277841386064 2.2850320250038996
40 -1.6755425675401245 -2.4959995253638345 -0.6511116828899971
3640 -5.108647201367036 -4.004734853200635 -1.33914133836169
798 -1.3904643709997782 0.22414630754797116 -2.039565418967664
37 -1.5097658367713622 -2.5591608330872826 -0.24903850234867508
763 -0.43140559704374676 -0.6599581877141855 -2.5810247112219225
404 1.9370945882896144 5.107893191680223 -1.3490169449845466
767 -0.5796205885397181 -3.4746296192557242 0.4566796324462498
408 2.584358066761548 -6.340378110437149 -0.5095516145034369
771 -3.6151281844579044 -2.125233724009933 -5.4699684643981605
412 3.0583358051632636 3.101005255475515 -2.5795445522478953
775 -1.984653013337823 0.8387370126364091 0.18477683041595563
416 -3.806963910541363 -1.607073689165348 -0.022130535307274837
779 -1.4763626050797312 -3.308879270473805 2.358056084123873
420 0.23829389737818205 0.7290296677314708 2.021013582046085
783 -1.0874603643325538 1.25906177744834 1.753582921714885
424 -3.964950988650123 -0.17888777036046297 -0.8763186000099076
787 -3.2451710605991892 -3.7822912488908784 1.7592939241062402
428 -2.244166530202191 -1.0756084073247758 2.2162665038578524
431 1.8761206200961948 -2.8048054984239874 -4.419618751075013
435 1.31483230480901 3.629423659692364 -0.6098587265469195
432 1.4874185090736516 1.3952365267979834 0.8918348944291712
1194 -4.020451396713722 -1.582152657507771 -1.3411891082256961
799 1.413865938065746 -2.389713852728625 -6.4871941965868
837 0.2919945664594283 -2.0805548442905173 -0.9022067619918699
440 -4.3096364659676025 0.19663768843821047 -0.5996396631801825
443 -1.8090366469977062 -3.021162117321452 -1.772628496088468
403 -1.3423549325987245 -0.886722565197515 0.45032696306591286
444 0.8546893854022753 1.5305837334180192 3.399505791714863
407 -0.986952158486183 -1.2188381718912036 -0.8498834266364094
447 1.6552975156650405 2.394641495475019 -4.442279801156597
448 5.719915753177141 -4.831217568956432 0.5121868109275555
451 2.088077908684109 -0.8793435890061709 1.403258858775688
411 1.6514554698395216 -3.1538669960308123 -0.512792356191688
452 0.23501334578715855 -2.1314238561955388 -0.5202160663078986
455 -1.6338772708003335 -1.1089408096378874 3.5259392043650206
415 0.4705462329526961 -2.362360812080901 1.444603835613205
456 -3.568006819963967 0.06571083230007319 2.632690372861369
419 2.4952664778740363 -5.5885359514262 -3.914514016992967
459 -2.3175242960835734 -1.907888456467334 -1.1648601039982467
460 -0.9126630032162978 -1.0318120735793899 -1.3333896070471656
463 3.834387005231413 4.847037320148953 -0.8315586843178961
423 -0.10196570984804587 -0.5696860835368235 -0.16989379755820042
464 -1.6972007045015565 0.2990210404492174 0.5488080149050713
467 -0.5957637007182447 -0.6790895243693243 -1.181304775609287
427 -0.43424101839664647 0.6931299066806336 -1.7366115566293847
468 -0.7701080799227481 0.5920406712364483 0.6486927413605467
471 0.5742060876343249 1.1382006022831936 -1.0387325358105084
869 1.749006798811591 0.14894737953041517 1.8085207354019603
472 -2.337762805224057 3.36929009286087 -3.025847261822899
475 -0.3416626651035483 -1.516349746164116 -5.581828041823843
476 -2.3417235849843148 2.1218070773059052 3.4442148850495253
439 -0.21450452084866684 0.5817237505448204 0.7413430529163441
479 -0.8648697224957888 0.43875997920204224 2.0289907417985042
480 -2.392908084339942 -2.2330434926201534 1.5391496519343681
483 -2.7442193583672054 -1.8523766027716417 0.36496427620924576
484 4.72573467496196 1.814539876754361 -5.197101738857451
487 2.0910607589746593 0.7536010569498666 -2.0442582889201932
488 1.2921727226115751 2.4095577002636865 -3.3910972912220534
491 6.263977564215955 0.6881025968853127 -0.6278737190253674
495 3.7437316487497667 1.082182854047105 1.3000757069205235
492 0.06842777910297392 0.05635113173274429 2.653341440446036
496 -2.032923218049413 1.2418564518946529 -2.4806570196523707
499 -0.7717557169470858 -0.4375635165052961 -3.1545574711283297
500 -0.6162238157931726 3.303817742082785 -2.5879248850316374
503 1.8637629506367472 -1.8052056674632508 1.7259851536439887
504 -3.7854604789403132 -1.488732824966592 -2.391778368865531
507 0.9331603121718253 -0.9795245182330906 0.8573328533992696
508 1.5779553695485957 -0.27579533770999126 1.5597679455108757
511 -0.4982683050032724 1.4939702196785236 -2.279797876901851
512 -0.6960858393608151 -0.9237199517943749 4.53805573741609
515 1.6365361955517286 5.121558340140498 1.0224712348643132
516 1.9433462788421025 5.191842401747913 -0.47670577450845764
519 0.32236649162439823 0.0970424093087433 -3.076797083792264
520 -1.5082326455425232 -1.049856182282428 -0.12975847419547232
523 2.0958130895087517 -0.7758257526073941 -1.3923599955814667
524 0.1425236373364918 -0.5767029588495171 1.42723707431744
527 -1.4852775256623787 -1.5769951796970842 1.4597851150381764
528 4.170797311588944 2.115533247475586 -0.8996863668601385
531 -1.8234604671351378 -2.753361610441131 1.4794651927559175
532 -1.0749103599250465 2.5760540692859784 1.4181838949563477
535 2.3189371620876145 -3.1307912303972727 -2.47582935541359
536 -0.40159828246445767 2.195126621160132 -0.14944830190516797
539 -2.521075886265719 2.119987952793291 2.7409128115355625
540 -0.35062071925052074 1.3212658577452023 -2.4309932069138185
543 0.4039348961158044 -1.1205188540945783 -0.9971996986009779
544 -1.3242472045020952 0.802229049248718 -0.2170801957807827
547 -2.4914483281215656 -0.646648251014649 0.7563073785266679
548 1.8240815173735054 -0.5086118785919539 -6.19432181719748
551 1.886061160728292 0.2658702511493357 2.2240246225136597
552 -3.7120290135266316 5.072468981215216 -2.1824680873501134
555 3.7084136023595575 -1.5836734577050449 -2.548376486443425
556 1.5081801812198488 1.0078513900768333 -0.2048128855566874
559 2.646864014302768 -2.793056376822214 -1.1562170255398738
560 1.0122380268224431 2.002012957715829 -0.6088893120234767
962 -0.87319499110359 -1.4938942608993484 -1.1635409759916746
563 2.196273069558765 -0.60547006417509 2.0201219766104423
564 -3.689209497260174 3.8121816598207587 1.3713220651235691
965 -0.8203964882332517 -2.024328347815993 0.7229894712403953
1005 2.962033573103101 0.11983450288207437 2.4904005158615625
562 0.2376388304436072 1.9725325865060162 3.3948557122429
567 1.8452554466807591 2.7191865702110727 1.6446720949842502
609 2.412879299664254 -0.6501055361030585 -2.568062093676794
966 0.2747849730400464 -1.3660516713159974 0.8849489391616221
568 -1.522953049208407 -2.260770148654511 -1.9375550352520163
1009 0.4545764248090533 0.38082008838154596 0.2263549975545292
571 -1.3292432191396728 2.2921091299259877 0.3137167726496185
612 0.37074630009660065 -3.21187704330048 -3.372948412869527
1013 -0.332319092683988 0.3922646225600405 -2.7862753568203003
572 -0.51567968647526 1.4448542829255635 2.337601149756
575 1.8189570540323605 1.5673122198463545 -0.9501390444038986
616 1.3989793435224371 -1.6801040886091803 5.024152456027046
576 -2.559921714625798 -1.1434845730020853 0.3695144499707426
978 -4.626100555874346 -2.47928009398933 0.6002971097798607
977 -0.11053953432926188 0.3286633997616848 0.48632803947290043
579 -1.4009318268604398 2.045005746633487 -1.1268402105435735
620 -4.087208935336184 -1.8796671149429915 0.3666312293614179
1021 0.38739005506612134 2.3738735060257588 -3.1692224792113075
580 3.411738340706393 1.1484539437261465 -3.6688764978273882
583 0.4493323539512472 -2.000757973218207 -0.7636248165872362
584 -2.0128639651888256 -0.9285207538268885 -0.11997594208648678
624 -0.6466000892269925 -0.5398542372884545 3.821302850887682
628 0.22774852851505595 -1.0277500512026376 0.6096548731733095
587 1.5883852770098208 1.212048135894503 -0.9204521761299731
1029 0.10245214129822322 0.46512943968568754 0.0061018395996645155
588 -0.37349014457792323 0.6128647562449794 0.4571718886622142
591 -1.4039294143829164 1.721655633591434 -0.8950836585321487
632 -0.22901238794540746 -0.6997010014086611 3.9595691049994968
592 -4.6100518699170205 2.3595001673340277 0.7309312443870463
595 -3.8470071471587417 3.7875794266673473 -1.1297489067201405
596 3.834937589815967 0.3797259829039662 -2.0070168904252994
636 -1.5030539136102725 -0.4251591012893038 5.540427303316905
1037 1.9340441714221615 0.07574773990124507 0.17118066682724692
599 2.4368692552567373 -6.533886959628037 5.211587977612203
1001 -1.6267246805125324 -2.842098766353249 1.4888256268351596
998 0.9065126091806062 3.2370178687339872 0.4243571714514016
640 -0.5461097151541079 -0.32264402377019186 0.4133318475502368
600 1.5448953781135375 -0.28064091727043206 0.6536758642720649
603 -2.576891380530874 4.264179110761629 0.19800968531348292
604 -5.961523643224296 0.5045354970670438 -2.166354559876884
601 3.6267859006093226 -0.41472890381354693 2.0011985501753915
204 4.026244658791027 -2.8269657624015343 -1.7494349743457804
607 0.767844107130739 -0.037786159758210855 -0.881464813587765
605 -2.3215977209471084 -0.6492412542089574 0.9046492230147914
608 -1.0092773425629726 3.2887248559893867 0.588033592069796
1048 -0.5161078716792049 1.3343385050658727 -1.1271676149560026
648 -3.996983300761045 -2.7705196663439167 1.2046870867419228
1010 2.454375954599361 1.7160901201951453 -1.5058007378829354
611 -1.0983505169032561 1.0242499015569826 0.925813399525289
652 6.607808629222016 -0.7928850112813006 2.1331873009446145
1053 -0.6962137620303068 -1.1360089226767698 2.003875592785332
615 -0.9783812616985722 -0.6266769771781772 -5.189386311924344
1014 1.213117329277702 -1.2867170787881526 -0.21203001071105898
656 1.3157405342824662 0.735765181030415 -1.7468745093440463
1057 1.9455978626056951 -1.2758492332736173 -1.8692712105626592
1018 -1.7657060957554722 -1.396050498031373 0.5866862963382865
619 -0.24410762794952595 2.076769077991587 4.380491561248979
623 0.6097725578873511 3.5617386671723428 1.3645844822515056
1061 -1.7235104848080864 1.0025512860325463 -0.10787199335935983
660 0.39586023308890683 -0.12289075637277398 1.8607360544024187
664 1.7593967773246149 4.210166611341611 0.013362681666608289
1022 2.1304042926180764 -3.2864221741224173 -2.7830579425276345
1065 -2.9240847634301455 0.9127992723230753 1.9988985404686146
627 0.3165017006701333 -2.3246275777511105 -0.5267057375918331
1026 0.05552985537760471 -0.775531177969495 1.2444681605081434
668 -2.0418744617405777 1.1507755407163605 -0.2827592649725603
631 3.772221493356641 -0.4921977602697262 0.5665034507312778
1069 -0.9425541431429896 0.7148611640375936 -1.9899855272353577
1030 0.8888374293969582 -3.9208003210737075 -1.2704371304066988
672 2.519257220967124 -3.621969480661498 0.49139040992754585
635 -5.942597457055137 -2.4918990970054 -1.4477183239266027
676 3.06512052285911 2.0417199133647594 3.8339300484816623
1073 0.5059583262012296 1.14157304663154 1.7401498609157482
1034 -0.17152229602058575 2.049872618561949 0.41667391568158024
1077 0.5406586254281155 -4.850042980443351 -0.5276800428972299
639 -3.723013807102903 0.35670387030555556 -1.4729610059213345
240 1.4430079910372464 0.5838716458795177 -0.4531970140566564
1038 0.6542503899948543 0.10908090556651254 2.662361961462748
203 4.462332256535513 0.4859603791675675 -0.5261805593693414
602 1.619125465563764 0.40773861359664004 4.074363234970519
1041 -1.7156741003244693 -0.36020207202575083 1.0767244096934714
644 1.547868763093952 3.7634086177807338 1.376075687229861
645 1.2544369647909397 1.9266756389861037 2.4253610725567056
1045 -0.23187431982300455 2.224778000357272 0.5107007946072095
1006 -0.30918453078177616 -1.5348221679903054 -0.13052049274233582
651 3.337215757210752 0.38507805173096055 1.7698316855034177
1051 -4.00551921411755 0.8240071220973512 -0.23059520604387576
1049 3.660264154674794 -1.0791361308666538 0.7546895678692519
649 0.5869882806957617 2.872876316156175 2.1428353670370353
650 2.3291740420081926 2.0192227726974212 4.7787404687448065
1052 -0.7646060873737701 -0.02090977014278498 3.508881378724209
655 2.845804534917963 0.6953392426414057 0.36323896116751275
1054 3.9857291968590767 -2.235458260838944 -0.09918506745926814
696 3.2231027116472846 -2.4051611855468376 2.7975403749978276
1457 1.3365371884030681 -0.23066616849749533 0.18148510483585548
1058 0.9617633391291323 0.590869570569732 -2.6426707544062786
657 1.568496889021931 -0.08779953767601756 1.4814874863704746
659 -2.0367701413124704 -0.6869443310298021 1.9832805993421105
1101 -5.225785345775349 1.593888973946508 -6.705586731186624
658 -0.8962373048874267 -1.859177191617323 1.9773391020966877
663 6.463118581295768 -0.8054291886522338 0.7532034951693942
662 3.2840337828143182 -1.3186253237621433 -0.09169060028261063
1066 3.929507797288865 0.3857689738763461 -0.4509274245018627
667 -1.5120470593618218 0.2052238690256152 3.1947761965769934
665 -1.352572542292268 -1.2513479499693656 -2.7177159215821916
666 1.8102055451145034 2.765758831937815 -0.47038582524976696
671 0.41603277581273357 1.2434719006258916 -1.1084995206168968
669 0.816215771888408 -3.287734666218101 -1.2556659373241372
1070 -1.0380441940153267 -4.275131248848696 -0.7967351347419251
272 4.184524566997446 0.7020250989418848 -0.5783946814511184
675 1.696468106468053 1.9034445919836767 1.3539615092833301
1074 -1.5690232051441964 -3.5689980775180894 0.2896870845277913
673 -1.2196125524655161 -2.3265737921898477 -5.128524660039208
276 1.4118253896830706 -2.4998590579183224 -0.8114781243327407
677 -0.11167891196205737 -2.884183352326456 -0.7750917545289051
239 -0.972409139632621 2.488630968849269 1.075225375656606
638 2.2976268962811326 2.091241552391986 1.5100345063377307
280 0.5564660449437417 -0.10164679757095513 2.1776517150226735
1042 0.9191155485380599 -5.092831888221472 1.4760078345100829
684 0.1335870767650101 4.688268931361444 3.887693589191085
641 0.14267948321139579 -1.1432617521337598 -5.381890215064766
642 4.678591214799723 -1.0998076892714215 -6.774277720742099
1047 -1.2114287491240214 1.6101135086590546 -0.709070368476564
646 3.1170145734752603 3.48617525989348 0.5239783425640788
1088 0.8383235836753091 -1.8894222553043893 2.6991591130222323
1446 -0.19001617750554753 -0.4703093772470674 1.9670894795268317
1046 0.6343685851270006 2.001455352885467 -0.5877395729575752
1489 -0.38060515752884655 2.26837927936233 5.231845764990783
1490 -4.180689619956532 4.749788382383372 0.24758243369067734
1089 -2.8383561589968616 -1.431172206755704 1.1324101535268367
1450 -0.37251253286554104 1.629940774634207 -2.408203472076332
689 -3.4399742451960442 -2.7565503353521286 -2.2314350195996493
1092 3.2781266443676254 0.033416063392454745 4.24835088459976
1095 -3.562715704121921 -2.063024774492911 3.5050855073799365
1493 3.4422567712306127 -0.021401229711290312 0.12375799379515812
1055 -2.946274022502185 -0.04571064106143388 -4.012225645771855
1494 -0.7191780363060991 2.2187551951804196 -1.869270732361557
1454 1.1987240486725184 1.8260174427303153 -3.709043310854865
1096 0.24172642594787186 -0.24802123582535374 -3.908402263280233
1497 0.5197299362753057 0.5790044285900595 -1.308377337803457
1099 0.3975347663892218 0.7441871826260307 1.4392775295483275
1498 -0.6131272608906415 -0.8141590676830504 2.2730987705022696
1458 -4.137179418731434 0.46059363020545596 -0.4953821804469169
1059 -2.1067088118742743 0.25736806640160215 -4.831254553843181
1100 0.8397817806520054 -5.231825174655545 2.816747948386431
1103 -0.21057534612105172 1.42886493657039 1.4477650385920307
263 -0.6819655963507527 1.1123637823760948 1.360977132398818
1501 -1.2636245023231227 1.0903573391651504 2.1665982759524685
701 2.333493411955541 2.2650409828745848 0.9021447994926132
1502 1.032851711917692 1.996640138721652 -1.3108854352461483
304 -0.8903124708417196 0.5200416130985779 4.8923655003223585
267 -0.19223176094878006 -3.2609313079574402 -0.795415989286017
704 5.585469704931553 0.9370731440972585 -0.02414427736907711
705 2.7372932117160653 -0.6439633943761937 -0.9849970183220198
706 1.4942696134232165 -3.524798899204071 1.083001612978306
1462 3.6798343961904436 2.1588729672487523 -0.8665176401814425
271 -0.5469904709172088 -0.3981460166100521 -1.0055695482884068
308 1.7137235043295014 0.4828936216309031 -2.161568368522616
708 3.0962234958479566 -2.6223744781215426 2.0388135194766788
312 -0.2285522634348396 -1.5338515644724715 -5.483105142656136
1109 -1.702643826140348 1.4353766577688771 0.49508176586149777
670 1.635775521875715 -1.9046810917528196 -1.3950380559299185
1113 4.558246634597557 -1.5837963992895363 0.791066909484246
674 -0.017798769216802672 -2.8345507551393645 5.115527786155804
275 -4.445739086061879 1.4248826529548506 3.987795846422722
716 -2.379367724493448 0.9276899943659194 -0.3609998050717966
316 -4.108484528452611 5.651941387780952 -2.9255752516480795
279 2.721677926528159 2.3467637016352865 -0.531524611622137
717 3.3931815364115177 -0.2503026965791795 2.1548932071545606
320 -6.470732021775838 -0.3937028673135927 -2.239307496191802
243 -0.19528121388679953 -3.7129929778148907 1.2981384607393303
678 -0.08230699633655157 -2.9598264814214517 1.1123947747820035
720 3.5310339354087543 1.0349963156544053 2.247821277933037
643 1.186151619506338 1.1219480842705385 4.887528621849491
283 0.3143939142108897 -3.036843208691356 -0.7937833459615578
1121 -1.9232087677334215 -0.09107466513018544 2.6357978379812175
683 0.8867635345630506 0.3920038591738516 -1.8466407513960539
681 2.18957143044036 -2.3609787989499704 4.221568658492998
1082 0.29294333059150623 -0.0969258998132404 -0.2273086832489127
685 -3.324227291880068 -3.2134812305840983 -3.963552664932661
647 -3.567730812183736 2.1282976899576016 0.33395202632132104
1086 -0.12816959432410957 0.6172253155615757 -1.113509180233848
687 -1.109329626734862 -0.5593299637237804 0.860019736790978
1091 -0.1525108983870285 0.5524937551745873 -0.9639829990376223
690 2.2397031291213674 3.848889038209474 -2.0799978903087672
1533 3.8095894249493574 0.4653219410772416 0.5782228627629709
1094 0.5838524786721977 -0.7259739181332117 -0.13989862713598694
1537 0.007911974602648671 -0.3175512540830088 -1.0421703263574362
699 -1.3578638030934023 -0.12946559469450053 -0.7859330966325739
1140 0.549554530261467 1.9655113659038588 -2.1684517873157825
1541 5.58299332451231 -2.035060815617892 3.4099779150659493
702 1.7989622085970807 1.3892226989461363 -1.3203909615307765
307 -0.7109150619185414 -0.2669886071920686 2.2582235280291996
1104 -0.6817394050656537 0.39637805046789054 -2.061157169362013
348 2.2671870434079477 0.43534602627736324 -2.4494555821564155
1105 -0.8014183722708579 -0.3293909468543561 0.20273235226514108
709 3.2155720263853227 -2.0307739527840734 -4.480088917403203
749 -0.8818663618831106 1.1435762878930023 0.17138211985579918
711 -0.4624148692302242 6.568160638953975 -1.8677539030624966
311 3.1167907228862606 1.3381383422561575 3.7696105194048055
710 2.405186039920885 1.362480145702904 -0.5682271920325773
752 -3.301225747980542 3.4122484095363537 1.8215694209423234
713 -2.57314789547278 -2.232508827908802 0.12827401569951546
756 -2.254604448883428 1.7631715905166045 0.5240968580191047
355 0.8975623965332133 0.5672691946106618 -2.4582512230381988
712 -0.9128057772003284 1.2089544692798673 1.3481769861540789
757 2.3281529075034206 2.3180826352323205 -0.7804868620835366
753 -1.8625414219032632 0.13920603969382506 4.467365748568098
719 -0.2368504954906423 4.4249545841267555 2.186395625486277
760 -0.5023142278254789 -1.0642438902820057 2.8954862506128234
759 -2.041149080937619 -0.9028313910316207 -2.163067994494419
718 -1.1395205587143344 5.510911064148126 -1.4200081838376506
323 2.3348333641846897 0.23100198354929044 0.14944140300977848
324 0.5360286162512813 2.5903166428345163 -0.006301952601879032
682 1.939081113778673 4.3484995796214445 -4.190839572227896
1087 -2.434909661618032 2.226119875425576 -2.5580391540851437
728 0.28355052067433945 -2.3048293642220123 -2.6820301543534146
1090 2.0814623223172384 -0.2463669197555543 -1.5531589336286415
1133 2.4691191599501536 3.6304982722683006 -1.0542684167516332
692 0.8974975069826129 1.302228403404267 -2.9595644738896265
1135 3.624000199370689 0.4348161658685228 0.33082975249077695
1134 -1.5273716205218262 2.6947547473121194 2.166719817192348
1136 3.0372838001695577 0.4585620382470115 -2.0283341564278508
1137 0.8186282412643217 -0.1871656162179241 0.5057007088664935
1098 -4.306307489454755 3.1901721310759963 1.9579493661231364
703 -4.372166279337396 -1.8773001166190915 0.5610632388721206
741 0.5376477003856731 -1.781549855409357 -1.1570947849496875
707 6.221220139814507 -1.0652104814414896 0.11819136357098323
748 -2.9654524764430077 4.920751325013115 1.8732085122237339
351 0.5133858602628365 -0.2817967518464252 -0.5149425672340467
392 -1.194045689188782 -1.5272359708954555 -1.6529711158450797
750 2.584190905772094 -1.310180345605484 -1.3886994999835434
352 -1.2478665562777742 6.071017452732866 -3.1419177645784586
715 2.758223897166998 -4.757069281754423 1.2852707966759687
755 -0.0812246541150706 -0.6773233325545147 -1.1876433287517012
1154 -0.11089159018708875 1.3015761241878792 0.26599465828354546
754 3.7709727488308933 4.3369813795371 -3.3047688460396256
359 0.574939815767434 1.1592427755679853 4.652316828658209
1197 -1.9747106904383573 2.37582850493501 -3.9942057721768425
360 -2.5912537086172374 1.750250764122002 0.8791522819078356
800 -2.4860758565977963 1.0805781661890415 -2.306349962204481
761 3.560327309591645 -0.10982955427688847 0.2871362084483806
727 0.03630495736200073 0.9606162456717238 3.5358678709915865
764 2.6697916713140692 -1.939320129995392 -0.3921126153796821
768 2.9493832258759625 -0.9597323844384082 -1.453235480107286
731 1.8387707256646353 5.649617321149378 -0.6407849954099691
772 -5.884673419405402 -2.2415685924471913 -2.394763272381075
735 -1.8480783954344564 -1.6231098022227592 4.927930731428318
776 3.0556346776349574 0.5571243464557523 2.0252200473736717
739 -1.9622005467424315 1.1086660207409067 -0.5863973877577717
780 0.38112387302325235 -2.5519467441480326 0.047278405830801215
740 0.6758408311191743 -2.2827515521384973 0.9140767193674223
743 -3.7178554854675356 -3.7969138974389174 3.1341027118228713
784 0.7799143468002011 -0.3352250172314896 5.08191896428448
747 1.2590138237673993 -2.017938751262068 -2.087367358087988
791 0.5789705720583077 -2.1647688075208436 1.6769710368669284
788 -1.7958575296541994 1.5418274529367266 -1.380896810181974
751 0.7684854205711403 0.2063168884533817 1.263096878219635
792 4.73206714033797 -1.1608405898869532 -6.833011422946241
793 -0.4381676487442592 4.636852207532089 -4.985248726606105
795 -0.01846487885576498 -0.1789270918863036 0.5261307823025397
396 -5.64468965552666 -1.8776704287011012 -1.8971946935839858
436 -0.5984403192914451 2.3667596396487904 1.2023647754390603
1158 0.5824928113260369 1.852764350321726 -1.7231826964358548
400 -2.8765702312490826 -2.193224907100427 -1.5079243483035856
801 -1.4951228558849057 -2.3003612210186493 1.5441794227355976
1162 1.1497482494669806 1.5565777357639807 0.1629542142321984
1163 -4.2307326056375345 -3.1424956098554433 0.5127763305365332
804 -2.74964565740308 -0.9534844537931898 -1.8203953641755517
1167 -0.2932559543227625 1.4711911119376184 1.8452623486926938
805 0.26153544997202866 3.244095868633228 -1.3372100857833584
808 2.3660301210820642 -0.376228222686196 -7.7221268994094325
1166 -0.11591385632094738 -0.7219495956683757 -0.005178236503795733
809 -3.857981123143202 2.3472928371073207 0.5910143534997191
1171 -0.6126721671846922 -2.5809354634743995 -0.9253738318220625
1170 -0.8462105405194057 3.9885262018986034 1.9809435739519585
812 1.194037837456621 -1.8390944925464716 3.0632520931658704
813 1.1339237813451633 1.1539581689494791 2.4283532926662006
1175 -1.1051449201078596 -1.8305429026549793 -2.633247881085477
817 -4.055278042796898 -0.24482814824943014 0.24990687394083508
816 -2.338705499638871 -0.8173662349432742 -0.8528609029480165
1174 -1.460357939637851 -1.7760998549769882 -0.6725442168127028
1179 2.539576503247808 -0.4471027353255679 3.009464172205089
1178 -4.194964250510371 -3.346929976921728 -1.4412694414169216
820 -0.9951029299394678 -3.5468505905136767 -0.9500128980168294
1183 -5.7770196537428395 2.6762102350486923 0.4173552794253172
821 0.08959627570034694 0.4119147096641102 0.6225173970069768
824 -2.570939877844904 -1.0160614834782413 -1.4072686598470394
1182 4.317252532796223 -1.3276552753620763 -0.2968901240084139
825 1.4018483053166892 -4.284075272970903 -0.31244521485849513
1187 2.282285370781645 0.17432429361359855 -1.014462368917249
828 4.002700076947529 1.1927256627498404 2.2163567142089993
1186 -4.967903815603388 -0.4639779644641595 -3.726157082510681
1191 -2.921725244612825 2.8780298809491436 -1.9005352629645913
829 -2.527438816259757 -1.0831012610610302 0.3521782024621295
832 -0.13680293210956726 -2.75730030180799 -1.497942435667511
1190 3.575467177667663 -2.258554398897772 -0.7806454200867049
833 3.297304666680677 0.5000655194194933 1.0883336733891116
1195 2.4137793616169545 0.14896191524397637 1.0464782589543005
1196 -3.8467632159847054 -1.279215541831629 1.1854837083020542
836 2.6930334226118506 0.5860128321316103 0.6921008817883759
1598 3.5068189161476058 1.923186665040595 -2.3871270225819416
839 1.0308130089064653 -2.5870446834288745 -0.8371433802096093
840 -4.922070666775833 0.6065852287739688 -4.544283557323192
1198 0.43687675244657026 -0.7685653838427063 0.7132453144015332
843 2.134471654513488 1.024590257868624 4.506874551081229
842 0.061538692739828954 0.1369523864780423 0.8533803021914589
802 0.8458069305683072 -1.5019525777696672 1.1427912734448529
841 -3.8693199497495976 -1.6132777022082183 -0.8695474179846622
803 0.7451476206665012 1.3254609212020554 -2.1204065232003413
844 0.34624143003826136 3.4031995715432157 6.649079299820586
807 0.0867868201489462 -2.223976752534301 -7.0216419151051985
847 -4.305325984800402 -1.7982690063962936 -0.5971057309911677
845 2.1774935111860994 -1.6847239489638794 -4.714327407100658
806 -0.6065065308672036 -0.24934477316011056 0.6428175467964913
848 -2.4448435747139174 0.5586241728741214 0.5635837591543266
846 0.7699171965899715 -0.13595371746642182 1.894552590597293
849 1.6503813162349288 -2.4574634013915477 3.4780421362784018
811 0.48987538470660463 1.2623335677496208 -1.9680315275384688
810 4.809791352156615 1.5486815939082992 -0.8913376555952661
851 -2.3952234182072374 -0.22038638825953408 -3.3441655234813012
850 1.8500158930619217 -0.9613262846066869 -1.295113968123574
852 -1.5005881208717582 -0.07293495912677422 -0.48204428585122416
815 3.7893401087794363 3.5812611107886045 1.7134421395047237
855 5.990631873652881 2.113476287402141 0.6931871313077875
853 0.5864576536690806 0.6289606274747921 0.11269062924520272
814 -1.843991582977709 -2.4477474435260262 -1.5068817674358814
856 0.9369204532466552 -1.1409468047133198 1.3297075034130006
854 0.634616849841917 -2.419045854574824 2.610810990854564
857 -2.1973367327285906 0.7845611292917407 0.06841053303711732
819 0.13692315774088745 -6.0645138883407155 1.1293371732324915
859 -4.490210939082444 -0.08203441859899314 1.6765111879632206
858 -0.39588013393099036 3.769666873211942 -2.5731005728083507
818 0.6820834367770108 -0.44725590699189366 0.6286278958169836
860 -3.608094633848458 0.664963092486641 5.0752510459797655
861 0.55274466997012 -0.06307331763323823 -1.4272352919052862
823 6.20930408341888 0.7172335995257205 1.5372565657922725
863 -2.6322006504801494 -1.4300770412581085 -0.9396743268730408
864 2.344685367366558 1.5642512692868913 1.4124229374229114
822 1.1092959316468234 -3.766133324623598 1.9061084836232711
862 1.9645353910521246 0.08466851121256551 -1.7456177442452312
865 0.5598960508598967 -2.330292677048364 0.40650804853456424
827 2.2069703437059327 0.40752882826982967 0.5205273616074664
867 -0.44742337150986206 -0.16647997557309557 -3.5227249175882624
826 2.3825436933577393 0.34739828545398765 -0.40913684375749493
866 -1.834751809296427 0.2665567150228713 -1.5872390341913902
868 1.416342905443181 3.782984052706677 0.6087734717212097
831 1.9380891987361086 4.469490162045817 -0.1425599229206071
871 -0.19126801887696804 -0.6642154263060731 -0.6756977633331435
830 1.2868574832393116 0.6174602374475485 -1.3534500116964554
872 5.243379205330789 1.499125966069184 -3.450559085607318
870 -2.4019293775521566 1.2436784886600305 0.019841861754332796
873 2.7082136393322274 -0.4039178980246619 1.0484678058670656
835 -4.66875442830891 -0.5563155280431502 3.8027953806039876
875 -4.0350579959484705 3.024833626729572 0.817684718682232
874 1.0769705116794817 -4.172859957245135 -0.8374268555628505
834 3.779769580307482 -0.4268893037319276 -4.014004891596571
876 -1.3300808458190627 -1.579607857842306 -1.1756319440107903
879 -0.3738737344685282 -2.9797401493151705 1.2187050373044142
877 -0.41227993940346475 -1.2249712042958953 -0.46242412561068974
880 -1.5883464473829683 3.467873595714202 0.5406610147148423
878 0.8375217501015676 2.56511160461261 -0.7356666308082135
838 -1.372802850808352 5.35498231570331 -3.645915732708418
881 7.1149687238414945 -0.11365913549915842 -2.2506013488827565
883 -2.9660458411782065 -2.954531756034574 -1.4047174754685567
882 -0.03069019648274168 2.4828789312477606 -2.8488739047669496
884 -0.4927936556199457 -4.144191319256532 5.220784270431913
887 -0.1363175153308593 -1.7565480037285206 6.910759312022019
885 -0.28742864667104595 1.384362796318194 0.4760714234728471
888 -0.7653530217436257 0.0552524369476425 2.4658850780588932
886 -1.880798806392697 1.542061983735905 -1.5022120170622515
889 -2.8604866892825687 2.3613044128756235 3.770744915320803
891 0.4301834442394172 -4.103339012324847 -1.0195690163298856
890 -3.3863075929590263 -5.929782636966203 -4.720782415415969
892 -1.1270113959539911 -1.3615010249223134 -0.5715585119305806
895 1.6230311114515632 4.584943503197268 -1.934354119326219
893 -1.2728325888363896 0.20997974020115243 0.20458484047844336
896 0.1773079523081547 -1.75057681805594 -0.9994326651813149
894 5.218480984031699 -0.28528585293767705 -0.5507905069721869
897 3.6555725149305873 0.9320847584587247 0.7684204156987016
899 0.11860028720292215 0.7056883927375822 -2.128729014593927
898 0.15083679108032852 0.6751401865060754 3.4570320043981235
900 -3.961719459638125 -2.6682635309780056 1.9143523268460434
903 -0.3915449788938469 -1.0065322399696124 0.0959405263396933
901 -3.7323009463612964 -3.501271907807429 -3.6436598276264776
904 -0.8781634654066326 1.6688353082095855 0.8183927715336422
902 0.5728452724768606 -0.4576923202151902 0.05754039696000522
905 -3.8818610900409998 1.85444465586569 -2.1171420762202215
906 2.1410374664980814 -5.953561541505639 -2.925356906172146
907 -0.9087817976831762 -2.71562208240098 5.93537471309898
908 0.3688829274607292 1.2673744399865168 0.48745204531823694
911 -1.0970900902351226 -1.557039242020813 1.0438942790220458
909 -0.16146559979077324 0.6080627324317649 -0.5093939755825457
912 -4.340269086462492 1.3568660446768661 -4.271011040163278
910 2.305755206430566 -0.5405020139858172 -0.3832274049611061
915 -3.355238817270415 -3.701816785385309 -0.5159206519510158
914 2.3494800759755736 2.6017156597582125 4.935845164328477
913 3.1124189388895545 0.6893939587622695 -0.41799748647338664
916 -1.97076682430968 -2.2099713788010695 0.49640931746462036
919 0.16093661410734952 3.668929402904091 -3.2010550789318524
917 1.8357512889261958 4.892776423639669 -2.94119272696337
918 0.7226750035127363 -0.29029458764195654 -1.037908042526268
920 1.5725253309623237 0.19624215825697533 -1.9840017075509018
922 -0.9147819375385648 -2.4390001776161503 1.2778981186990979
921 -1.377233821822594 -1.6816164700017366 0.5623203431431488
923 0.08878784018979093 0.3996625777343743 -0.6101981347145214
924 0.4133348811664173 -3.1211591981700324 -2.3892648191641195
927 1.517951171142708 2.7405607574431268 -1.3632527151706668
925 1.8517499814874296 -3.3826064915292853 1.2038871558233923
926 0.6287991367015139 1.5364093048766694 0.772104064666344
928 -2.8213634493745934 3.415618547494219 2.827151309900008
929 -1.3440520085514596 -1.1948461379744693 -1.0224973129695003
931 -1.9641687724487435 -3.044456319498822 -2.0452810501717527
930 3.1481084646626942 0.6108910717129863 1.7398805240950337
932 -2.079584929590622 -0.32046201709920624 -4.34563317585147
935 2.213781258038301 -2.621703721725533 1.553354816791993
933 -2.92371924140747 0.5049642699706467 -2.589558264326344
936 -3.353416817480886 -1.8979942713827607 3.3541058502444505
934 -0.3183418338085973 1.1771609080852221 -3.3491807395749538
937 -0.16832394075224777 -0.6758226161382009 -2.6886696808831214
939 -1.1350236012118133 2.468990990439757 -0.28438543840686986
938 -3.261114580755113 -0.4766914924529271 3.6512418579473325
940 1.3010706021662162 0.7226491344294345 2.514867860425654
943 -1.6470572988799972 -1.1742355394016422 1.8838896666720206
941 1.262073160204094 -0.3643224098558775 0.2367960363815777
944 -1.5250622757153958 0.8971777747523106 -1.6504916906030787
942 -3.043215166516386 -0.47333142889049135 -4.066389106677499
945 3.4285439071938173 2.155848189087429 0.19025466325703064
947 -1.7862610031416448 2.946602630320802 1.2719059997244866
946 0.5325971185013331 1.0011541712300605 3.2835925263118355
948 -0.5089096707158566 -0.1370235747357738 -3.6030443645096493
951 3.4719961091134013 1.1715202389750619 0.9672768583517849
949 -2.173316681156322 2.3091695281357936 3.883025154653972
952 0.22311154868206856 0.9067972439094245 -1.1845014778135068
950 -0.22324156246286375 1.3852820854770842 2.109298012061117
953 0.6628037983573849 -0.11236589246372243 2.7783015596609224
955 1.1149952628469633 3.2193130639464225 -1.0641067049358033
954 -0.20786976039600996 1.3708587638571779 1.1847441119623796
956 1.0827924605912527 1.7235634887192053 1.261585224403205
959 -2.2158872813853607 -4.523116847519775 0.09322454509217863
957 -1.031195496417007 -2.567662247156576 -3.869127591924346
960 -0.9777797071120613 -1.2541237172102608 -0.5451062755311462
958 -0.07078142075190426 -1.1041696265276164 -0.060345708289657324
963 1.7466143183276324 0.10885069121738063 -0.3898229192328413
1004 -4.592057984807998 3.497533723762791 -0.45527668437344465
964 -1.7159895915889163 0.6047063978328107 -1.8261993745726075
967 -0.5736116455343854 -1.2368377159054875 1.5454737398079719
968 0.8327630283347076 -1.379389939612445 0.00828086262281437
969 0.5486897552055243 -3.995982077089887 0.46482374917614155
971 -0.8059618743299866 0.7679685558394639 -1.8615951381629825
970 -1.9015014163346038 1.8462371409682083 -0.47195171372020345
972 0.561324760746493 2.3503054980010822 2.6166369567583367
1012 0.9827073028520675 -1.7298552416764312 4.81339049888607
975 1.40968498383408 -3.0316492059102265 -1.2495673624690786
973 3.892323496604373 1.2510256294864928 1.3357829441200564
976 -0.7771901462736044 0.27408179446052294 -2.350538060982433
1016 1.580468086273418 3.158758628845378 1.7612998249769736
974 -2.586698297484458 -0.8591997323746752 -2.936931206332016
979 -2.939006806687573 -4.466076465424983 -1.7234540451865343
1020 1.875149044623975 -2.0406719967795146 -2.9325646117065767
1017 -0.5640415248156477 -1.8406428933474301 -0.8856605137411627
980 0.06454288583661692 -3.291639953625113 -3.872712918247942
983 0.5619663355219122 2.332707725928941 3.5643487178109403
981 4.68990574396758 -4.504555088873678 -0.6243158028051778
984 1.4641661245306348 -1.0878873784356649 -0.03710571745122092
1024 0.008752491164959122 3.182089278205691 0.6318441977016489
982 0.12544988751801012 0.0463008656252725 -1.9922144656738332
987 -0.3255674834083273 -1.6726275110534903 -1.4775637829988428
986 -1.0075413699286848 -4.036526589959909 2.586662684986615
1025 -3.1110409416908 1.150237445646851 2.7410015770397633
985 -2.350590083610422 -1.7713276536907527 0.028621013155324303
988 3.2506895972073644 2.9469138820695524 0.37977323500271487
991 -0.4194178955944939 -2.201938593357319 -2.5192866677351295
1028 1.3678217643945132 0.3339143167053885 -0.06339630290497003
989 1.7171224649506722 3.3911949686437035 0.8478047239001891
992 0.9776356855271798 1.911953913204637 -2.9577228257925046
1032 0.12334477595094293 -0.6437497980985523 -0.20566904540432826
990 -1.5529682706977155 1.2371012414365679 -0.1891627872653483
993 -0.6809074009067249 1.4833647623885904 0.9227613540813504
995 0.9169665219853457 -0.3838002824003006 -2.6461462485244804
996 -3.350767013265826 -4.62006786718308 -0.3006011668330729
994 1.5567482680608475 -0.5115480845855483 -0.1418152629006686
1033 -1.6747034937505518 1.4730036966634341 2.095042967464251
1036 -1.2682761253638843 0.10642850744504033 2.222801797539843
999 -0.6316664404643562 -0.9202188721312438 0.0016256892625419188
997 -2.1377633172327806 2.359677376855213 1.0433838538394518
961 -0.5656274701987962 2.2277602616567482 -1.9323899347157225
1000 0.01096244638647821 1.8588028674602974 1.9533226658453502
1040 -5.231459462054867 -3.2206469711460324 6.876689753490483
1003 -0.8009915729057376 1.053674564710797 -1.5732160601626943
1445 1.3448656359941513 0.39893982790114896 -2.8193399911527153
1007 -0.8413661810974914 0.7843187522099138 -0.3605663727321956
1008 4.4159427849209765 -4.208091959015494 -1.103434645894087
1406 1.6385300513826595 0.28562717985519914 -1.5090702043384112
1011 1.254371969059474 -4.017750565864922 0.42767138202077415
1410 1.4353099403016354 -1.9526494456277224 -1.8991193033067961
1015 -1.7718968285701573 -1.1936934720074626 -1.9325504122208172
1056 -0.34558014258154574 -0.08670181607912694 -5.063869602920909
1019 0.17538248466662246 -3.487051318069407 -0.055420575606385795
1060 4.3090652916808985 3.5924727142953996 1.1428818432349577
1023 -3.860444741246207 0.8337776049109001 0.5638413085105273
1064 -4.454000015070933 -1.6129992504213708 0.4011293534356217
1027 -4.128234864037308 1.5127071122664442 -1.186131658300519
1068 -0.5071028084799745 0.5066389229703313 0.0727355391211713
1031 1.361391546888752 1.4218031378276905 1.2146341244273515
1072 2.175747806565549 1.202054081212796 -2.662686789412157
1035 -3.385831806469818 -2.6310934306200315 -1.7296122413808075
1076 -2.5683932958240314 -1.903459096193156 2.502715765594436
1039 -0.10125382968742908 -0.29920463011585113 1.5612941446342192
1080 1.1634008979109056 2.823906613087785 3.821810457255267
1002 -4.790353509381419 3.5575296434134973 3.424570442490255
1044 1.2744674093741806 0.27162732042496424 2.5557521022884466
1407 -0.8140288736383707 -1.703878013120244 -3.743451151608868
1448 -0.13052589506523515 -0.3175455175903045 -2.2021435723662157
1449 -1.078835122099713 -0.210710337423376 2.7371871840610322
1452 -1.7619421597988585 -3.645246399128374 -0.7727085427520907
1453 0.46338321767440727 1.0487928380852851 -3.1873778490300313
1456 -0.5890723543775246 -3.371623926872392 1.3795411205278982
1460 -0.08112362542745026 -0.4206504728976601 -0.010969528084775415
1463 0.829015730345153 0.20798351111985086 1.0961575167809152
1461 -6.055238748179764 1.0583121751170674 2.0706466122212706
1062 3.769908974544619 -0.6549385784710728 3.09331180119644
1067 -3.016169841670426 2.0808473971050456 -0.9772176332202301
1505 -0.22800493031192728 -3.592238552312076 3.2106074671965046
1071 1.4197942298462187 0.181438924766716 3.2937985390223368
1112 -2.150457067411099 0.28559510503642127 1.8059088518616213
1075 -1.0511792081381912 0.708320869559346 0.981988936481606
1116 1.0801631679215384 -5.399666951228471 -2.1857358192152754
1079 0.5890376082067026 2.6371185347909685 -0.9294562066099992
1478 -3.038037343967068 0.8902314169686917 -0.7731999997532277
1043 1.4929025413514623 0.6390904146875888 -4.9858113110992015
1444 -1.494646276595811 0.9345740445517181 -0.09168492557595684
1084 -0.28017481213933554 1.801589205912336 1.9090380433000511
1447 -4.299990382865291 -3.870961852328634 2.0337906441971794
1485 2.2287410645456154 -2.060225371317654 -2.661886857993095
1488 -0.5040222211822529 -3.5106993400117394 -2.378572601878563
1491 -1.5835821828170262 3.52374561625445 -2.023058560107892
1451 -1.3714559796075088 -1.7692991924485377 -0.7034932270239551
1492 -3.2218521533349795 1.2440145718355524 -2.9450344341294654
1455 0.6550451948670217 1.2367256071566615 -1.8449401010559436
1496 2.103162975738778 1.0510313340883486 -3.743696996612899
1459 0.43879606512685665 0.7183389518379518 -0.5142453195832125
1499 1.8786572774727344 -3.173092490030319 -1.8193840325313235
1500 -0.26052312974372704 3.5919838195340215 -2.609473329798358
1063 -0.2643796798757413 -3.245298318050825 -0.6845782800922363
1503 1.7426654521734941 -4.184903537549434 -1.1962470641305547
1504 -1.783739835659795 0.8577953136988631 0.6069559350306724
1467 5.225112186279719 -3.2461765250253523 0.5227759390537964
1507 1.5606507730811239 -0.5336074841205812 -1.5928358177607282
1512 -0.5259233801128927 1.1306059140892066 -0.21052273975108612
1508 2.53437164247244 2.1871634472228294 -2.4108762854646253
1509 -2.290903091502906 0.5004468242627648 0.6701183065808317
1513 0.6865760160849774 1.7495675746429 4.311918588906904
1516 0.5622811119115694 0.17716360000071704 0.09152085958869795
679 3.050600484228153 -5.611969849203179 2.0281979611866268
1078 1.7625161139458871 -3.3313420433243417 2.0228112427546687
680 1.3390775022022081 2.2266385818454446 0.6982819690472294
1520 2.652550632674766 -2.7125839617916445 -2.0529744265043344
1083 -2.262525969076018 -1.856670056226965 -1.4506707261643335
1482 -1.1008008580501958 -0.6196571813926021 -1.2313907714826338
1487 0.5657805610257386 -5.094902779140454 4.45836947650538
1486 -3.1764662985701944 -1.342932609370361 -3.2674638170978416
1529 1.9626527035127874 -2.414348340580917 1.1140596995607166
1532 -2.556643907469663 0.13998240764538816 -2.0337814898072093
1495 -0.5881999543488634 -1.666862990935673 3.509350873712894
1933 3.304125856394263 -1.360527988942317 -0.6047595173952993
1536 1.1592251512376501 -0.649283195847887 -0.3732950081251438
1937 -0.7378007772667292 2.122836927498061 -1.5376531959899573
1538 0.07538960344607656 -3.902257259558615 1.873142144968091
1938 1.4292809979066876 1.0893678971995853 2.857551179002694
1540 -2.1760372430390715 -1.4679370987059208 -0.8677463685535232
1102 -0.9889248368326798 0.685096014046564 -0.19056693377727701
1544 1.4255834158855938 2.65368684988505 1.002210569155934
1108 3.7726086118105 -4.418734709337389 -0.2748235498676145
1110 -1.0911003547903886 4.6498377801522235 3.136124431135164
1115 0.6389474469259365 0.9354702144704515 -4.001678772096944
1515 2.642105496481706 -2.506657632934535 -0.1706781874707644
1114 -0.5401226416517517 1.8876274556479118 1.0409734892095603
1514 1.5408242112045472 -1.3314240727757316 -2.7454923687917816
1117 3.039928367741072 -1.7350784086366418 -1.5934421686183249
1081 0.9113497336266748 2.6023883449464296 -0.13449574158723854
721 -0.46342668792368635 2.0026960275492494 -0.820822880641009
1123 4.069530836200562 3.2031287869520653 3.44119375040319
1124 1.9172102741027996 -3.2562328714479642 -1.0770788091928187
1525 -2.0991408734573964 -1.2177845714761808 0.5751683706037374
1521 -1.2150738771033225 -0.1510039521833676 0.21408936178012591
1122 -1.838008101130086 0.3651497113314745 0.6038440819826039
1526 0.3506912172261533 -5.989241088347196 1.425120633034051
1125 -3.4184377769456273 5.21696346475534 1.4978351564473782
1128 0.16087278877479427 -1.0678475484317094 -1.1981584039127469
1129 1.640708079680172 1.4707633096918453 -2.946826783848094
1531 -1.4960410663782944 0.10188882865933646 -3.9803606958569113
1132 -0.335692309593157 0.6204168207481089 2.444958462320143
1572 2.2936112170733627 -0.6273523661411536 1.243714141831805
1535 -1.6714800742053753 4.247012665260345 -1.8025995861233468
1530 -2.3492471755982467 0.24391942556553228 -1.7261301410424634
1573 -3.2741828237527777 -1.1461160767105427 -1.0811031364515216
1534 0.7148197299969505 1.7330102830712892 -0.6861588245090431
1977 6.11726924422346 -0.3990008215572311 2.6021725518966465
1139 -1.0945530492666937 3.005507523291343 -2.16047014357418
1539 3.2229411383027693 3.2004479550938805 1.9458581971336641
1580 -1.0742974042841318 -0.7513832412080449 -2.197436459385596
1978 0.004418138901616204 -0.1894761546882142 0.2657761557828969
1981 2.209757177834154 -0.015378842722024765 0.20028952103206457
1543 0.8110301881144744 -0.6662602526006264 -2.74351750694561
1141 2.7642309571769346 -4.978484268214543 1.3194667154744157
1942 1.96589341468346 4.136077952568194 3.3898484085953315
744 -2.4156782636787733 0.32114193769759675 -2.487944393438465
1144 1.6150958980923675 -1.6589589030580316 -2.2717826480186196
1107 1.317288778304698 -2.8038546917793084 -0.6031567191032623
1145 -0.25793918110174724 -5.062831588256642 -1.39249721489845
1545 2.6083598690703234 3.2528244973619573 0.7869259069232752
1106 2.1400456858648593 0.007848391873280328 -2.014944395767081
1148 1.5337785817321794 1.748196867301823 2.8226671600335105
1149 -4.533665507999418 2.751319141453563 0.654211401837772
1111 -1.2467740946204295 4.271562050564317 -2.245695918182075
1152 -0.2625096667281264 -4.863710092965627 4.652529655796796
1156 0.09634683538581354 4.301658516341095 -1.1351481862866812
1157 -7.164832724017649 -1.1345367503288166 -1.4803839990982675
1119 3.72863020470033 -0.8934464377065255 1.1653647241469192
1160 -2.506228498266239 -0.3729480725059846 -2.6540760028680768
758 1.7591709961380686 -0.6343407770289387 -5.636171687743341
797 1.348468857685116 -2.153852668898854 -0.2681106755883468
1118 0.00015188545096944122 -1.7200733560117785 -2.20936331522757
723 -3.211206143652917 0.729428560874178 0.49800069910032946
1522 1.6838644946751322 -0.9365691698026984 0.5110287818902659
724 -2.1118651489011087 1.1970393120070328 -1.7532713800047786
1164 3.23239728925549 1.1213994527396784 0.06504774191482361
1165 -0.12503792153851126 0.6046447254188034 2.1025895762114164
1127 1.7308530935381408 0.8049280449045026 -0.5421625046810299
1126 3.694913450611761 3.909810538643006 0.7059322068107116
1168 -0.23349174427808442 -4.802776842806564 1.659538796889838
1169 5.711955857490464 3.2411338479365837 -0.1355775771753192
1131 -2.482422996373848 0.31957590116919177 0.1769057845726419
1130 0.6771722755587696 -0.682549122365921 2.1205648602512777
1172 1.1694473471572302 -3.5762322506024673 3.7447550416503312
1575 -0.18713561864431075 -0.5969193376237109 -1.0402971482116707
1173 -1.393209223837064 -1.4780055727120271 3.1632966751919676
1574 3.3186694127572944 -2.895574479842139 1.7756869963897572
1176 -4.776749640416298 1.2963916934853874 -3.1963737337742586
1177 -2.499128762385888 0.6189873130351277 -3.8234066270156872
1577 0.597281769209686 0.02684709809850325 1.3701323012442608
1138 1.2652396687041676 -3.50806947066221 0.0028930486209053524
1180 -5.512258413533329 -1.2559327022528723 4.146632765951591
1143 3.950588268815859 -1.9021763731809205 2.7159975919930788
1181 2.4916067170228233 4.151083746227887 2.050189937145472
1142 1.6706043772351258 -2.3160349627873464 2.8245805745083246
1184 -5.387425706031873 -0.6047179836829085 1.9732871730502517
1185 -0.16445758215434514 -1.0831034026613788 0.9021377249551422
1147 -0.7656100385692454 -0.4509860431565137 2.958965776087721
1188 4.9784058409411225 0.5076683786493085 0.36165699106846505
1146 -1.994480413369907 -0.16931290751750472 -2.363128645761352
1151 0.5324442276826132 3.9925770110418908 2.001087636594155
1189 -1.9499179755942793 0.6133073650639888 -0.40353104934395245
1193 -4.337871933330215 -4.306850280403466 -0.5003556979972522
1153 3.7206946569015935 -1.1725236502622154 -1.6392296653833653
1150 1.5254729575409305 -1.1866428963277604 -1.4905039863406297
1192 -1.865373770392057 -1.1257095074712375 -1.7767325331231592
794 3.235771792089026 2.3751594060334127 -0.03952005987494949
1155 0.42269163087508854 2.175046435630706 -0.4778279920618165
1597 -0.9561591003653904 5.282292193016702 -0.3190194477256624
1159 -4.629478042580127 -0.747520403484393 -2.0211011811966384
1199 -1.638253436331987 3.135769869252281 -1.7995136132931144
796 0.282530398432916 2.568606148664951 -1.588585516183497
1161 1.112905424424352 1.8894697986074729 3.295707257433169
1561 -0.3281209563115782 0.5062231432109646 0.4941590668719747
1560 -1.9720225357969656 1.6971485734051515 -2.806522344371906
1200 4.460373588926682 3.0809678866435637 0.46077207183483687
1204 -0.28613915965111125 0.4587471189329779 3.8263046388065196
1201 3.74538427062421 -2.518340799625052 5.61448079694241
1562 -0.12754959738047025 -2.7764308325673825 1.1088652846268914
1205 3.115151819561685 -3.7792197671597867 -0.8950476573452082
1566 -2.5546632627281114 1.317179497546732 4.302123764151553
1209 -0.016879744616946846 3.0877907552097597 0.7230590916075639
1212 1.4149692557739257 -2.3314430603739003 -0.6232441457217023
1570 -0.5094042627283136 1.1993919176711068 -2.374858356873021
1213 -2.2836276690825392 0.3325451811731338 1.6736637723008803
1614 -1.9068988541360337 1.7469067598269117 0.43268396188528285
1216 2.033561359320997 -0.20468797922837642 0.748358277213108
1217 0.10129189287453443 1.1910962359510884 -1.9733260605728733
1578 -1.0722297345543432 2.526299805032649 0.5638652017500569
1221 -2.7201067695188743 2.5155628771274787 1.6803508274191545
1582 1.6504491152703 3.7537207521710423 -0.7954852443062872
1225 -3.280258309132975 1.4719085991311347 0.3839601769086193
1586 -0.5205664552397236 1.594914617421156 -0.1716358024097071
1229 -0.6084282704103694 1.4755208727492666 -0.9359423192117803
1590 -4.0623625091020905 -0.7460458234779681 1.911670877581886
1233 -5.286436140672154 -1.5181498918052871 5.214744892320346
1594 1.5628802490768814 -1.6673425802631001 2.213618683043091
1237 -0.6267269662341641 -0.6890289509574179 3.53202469853638
1239 -2.0648244360322447 -1.7741385169876862 0.0757837577128582
1240 -0.006268108609040704 -2.3929073314503375 -1.682039278096133
1238 0.17056794975131206 -0.12760403183400135 1.3689120490654492
1242 -1.03108455872495 -1.1300474421590878 0.9271554364209662
1202 1.229551953295948 0.21674426769035537 -0.4506706863675718
1243 -3.436069136476006 1.842400652007691 2.9979808632503224
1247 -0.1354185848020516 -2.112836979427906 2.198043795645899
1245 0.4362538282080075 -2.035882626595593 -4.525097216285803
1248 -1.6169851601426097 1.978415842061498 -0.5400658069865576
1246 3.0472294931121144 0.09514594781380192 -4.689301361345727
1206 -2.788686225626013 0.8606755930241893 0.7829624590737768
1249 -3.865629074570671 -0.5532327269787455 -0.40683092058553594
1251 -3.202173927762811 0.8725539279824944 -4.823246530791271
1210 -3.373218191314385 1.0370280777929437 -1.8080036179933943
1250 2.398009849932286 -0.45986736642727394 1.7447059977884414
1255 2.7803036107578896 -0.4438169837647439 -1.0171838673774958
1253 -1.671120159227684 -1.8260190646501664 2.4048435835546336
1256 -0.2652749304542848 -4.661469648458252 1.8227110742688653
1214 -4.435280580892391 -3.1426583067542 -2.3393833343628323
1254 1.34106450248653 2.2546622781252 5.8064452308254735
1257 2.208936136570081 -4.732419631960845 -1.0082138141948298
1218 -3.379504013953036 0.7124555550498349 -1.4205522935129966
1258 0.403150516740643 -2.429649850867812 0.36044612332600096
1261 -3.325208033408086 -0.7330351698782909 1.3563972950169216
1222 -0.572975734732448 0.6863865343675849 -1.4566695859112189
1262 3.7647942028382593 -1.9177706736962394 3.908992240945906
1265 -2.6870282426510643 -0.15687771916319393 -0.9961549404500204
1226 1.046865397163323 5.328874654314024 -2.0360276342495354
1266 -1.9520288499080583 2.313209592764503 -3.2204145106324393
1267 -0.6308262699494431 2.509821511652148 1.2281644069928432
1271 0.4211870448596078 -3.4794562261961315 -1.5358346620242238
1269 3.9931348982612747 0.47830670984772 -2.392055990151686
1268 -3.38621361450838 -0.5418287142387602 1.3248054737208164
1230 -1.0288475799455374 0.059406062885980736 -4.027875937318498
1270 0.30443841543318334 -2.103346829976072 0.10559092922018365
1235 -1.5271974721690362 -2.460635430710308 0.8082936912857444
1234 0.9870867458381651 3.1924860944785545 6.102895724489555
1274 -1.8771156105981648 -2.0166168604899495 -4.0439230559718835
1275 -0.3121102398781591 1.6099867369528416 1.565810732106213
1273 -0.9938442654255408 0.5464412217698641 -0.4464786673113632
1276 -1.4516274504206863 -0.767905401297718 4.625647047917135
1277 2.261220914164772 -0.5284538245021733 -2.885234156071923
1279 2.8943705126969004 0.5868933382789905 -2.0259699205358124
1280 -0.43168177255663337 1.7069040891545457 3.031611338396572
1278 0.8240509133663253 -1.0913363427873053 2.1072254888168755
1241 -2.634936174989599 2.948435061013494 2.802040252668739
1283 1.9244229230049288 5.501535452254109 0.20081011681813904
1282 -0.471656200721376 1.66511411110492 -2.1951502548812623
1281 2.922085971954411 -4.020517306633343 -1.9198546945319033
1284 -2.256117777945737 -1.8080042053836367 -0.32698061681886526
1287 2.7236187113175494 0.4039392567843987 0.04464807908031419
1285 1.2457380026126246 1.7099837377064278 -0.2855186426530302
1288 -4.323335650559106 2.2460955868275883 0.028082633449244956
1286 3.8508357347836646 2.538009591054437 1.6039595331942786
1289 -1.5282517338128112 -0.6487472270952417 2.7413752987923483
1291 1.9413635693936733 1.6963376751451005 -1.4280340731126449
1290 0.11980904929234205 1.4127920709583166 1.7179153631879742
1292 -2.238003589557899 -3.7634876000495043 -1.982722542765606
1295 -0.6228160302730398 -1.4389036534255562 -1.9302680237907668
1293 -1.734563381443729 1.0959231994587568 2.1585655587015053
1296 0.5897817911501447 -0.12236691135123057 1.1649524906777589
1294 -2.0284943952249925 2.772848983530794 -0.392891045188917
1297 -1.1115569806261214 0.22685653395976377 -0.8619162800201338
1299 2.5822731994864823 1.5438681957343847 -4.370694245117396
1298 3.627377535773567 -1.4092668413854024 -1.9170381187454208
1300 -0.19267379263475073 0.03864029461072075 2.862011106414374
1301 -5.560085293300183 0.3733967072221055 -0.9798681484356841
1303 1.486248099273087 0.7421606966490546 -0.6657720616376032
1304 -2.8795211149501827 -5.083277815732029 1.3346355488502224
1302 2.4050485913444044 -2.3622166473607527 2.229003566499224
1305 -2.491398417480646 -0.6941413795102206 0.750408724399657
1306 2.822086423393242 1.7046332844443668 2.4155412167256833
1307 -0.26965717588628885 -2.35961867178086 0.638000083146003
1308 -1.6361966438662194 -0.4455621129097812 2.266541042129517
1309 0.7059211891675129 -2.984215296892575 -4.476643995628422
1311 -1.6073364371698853 -0.40036172797951025 -0.427401424837432
1312 1.0635321512785123 0.8814793332074743 3.8714074927661386
1310 -1.1196560893395138 -1.520323942420371 2.550270562189777
1313 -0.9503893141416463 2.6634928392929957 0.23091355519430798
1314 -2.791116206102821 6.2712355704502185 -2.287034279552267
1315 2.8778678518563936 -3.3025783151206736 1.317155833229019
1316 -3.2196856644272507 0.8459349521659089 -0.47696372123748204
1319 0.8931385952709558 -3.1859691979097886 3.2237091290634736
1317 -0.7145533793410165 -0.2192063397472839 0.82289055875945
1318 1.8998196320015777 1.8449281132114628 3.444667858057486
1320 -2.2781509669380693 1.1933733566497455 -0.5600682100805521
1321 -0.5346206933820378 0.499644682733144 -2.748379215243399
1323 1.4298388909641429 2.3451533368950446 1.5255018145465564
1322 -3.707988628937121 -3.5872289156293804 0.8415703992408377
1324 0.7684041414448457 -1.1271017571088064 2.9535699881915956
1325 1.6946817751236218 1.5805806330379797 3.1390867889351393
1327 -0.6425068143135936 3.3073830040908265 3.5242938755017237
1326 -3.314682599294854 1.0015521819638693 5.696240059922706
1328 0.7780954267346561 -2.724163755486787 2.6393600563838837
1329 1.2867170829976768 1.2848668521912032 2.7829285919638056
1330 -3.3627327734061643 -0.8689466473237754 -2.9840695932394663
1331 -0.11764657019400787 1.528443150272321 -3.073243725780068
1332 0.9300679997849522 2.58398266511529 0.10304306357157005
1335 1.9723165067399444 -1.4726283748422873 -1.7716793603822707
1333 -0.9076897788370742 -2.6410689091313597 -0.45619101487249547
1334 3.996472732511596 -1.5220217036520631 1.4527280458711112
1336 0.8110337265980447 -0.5572258438607837 0.40897762012543526
1337 2.141848353468085 1.615364710688616 -0.37369913000509847
1339 1.2270746538111628 -2.952884331373684 -3.546293903138799
1338 0.43164556615159155 2.1393789622297255 -0.9784848039368907
1340 -1.0587582577590817 3.9843414062141536 -3.099902157613771
1341 -2.7468485189595215 -1.0403977746965423 -0.9855876551643808
1343 0.732035586079819 3.01592068437239 4.291069030581683
1342 0.41569922433464035 1.6881431213422604 2.2079056629736735
1344 2.975963367048654 0.3068626562502623 -4.5383585032113025
1345 -4.474422593129279 1.044819777312875 1.5548592352162938
1347 -0.6157964606985266 -0.6589249471591714 -0.844042667735893
1346 -0.919218314621908 -4.746853004489677 1.2984543892966685
1348 -5.931562873180443 -0.24254163056100628 2.822975976625798
1349 -2.724463208564447 2.3772702103746703 4.087270783537182
1351 2.364072340148695 -0.6128930240771099 0.6318591108855519
1350 1.570234077955038 2.6055416687475095 0.47728143603408185
1352 -4.124339660740361 -3.1116936114452 -0.8917977899206914
1353 3.9396227969701654 3.6859149783152927 1.4118999330530646
1354 3.504322875839781 2.2230186886281706 -0.7317420275806554
1355 3.053062259203461 0.7927467771391177 -0.9955110947172111
1356 1.2577591500286793 -0.11197359650005084 0.03821798067800067
1359 0.9394406262642999 -0.41195103363656216 0.0640016119715119
1357 3.1257668157155636 0.4925286166608829 -2.2771969381118073
1360 -0.5411558762303241 1.8979034661850511 6.144967236218256
1358 2.9139649422614964 -0.4134156942611335 2.892430047874104
1401 -0.024436322678655257 -1.1306569571587886 -0.7151292195818573
1363 -1.9020084538303936 -1.6629576131174435 0.9400010911548043
1362 7.028290055703308 1.346870309900262 -7.114558955446032
1361 0.06661150107429387 -3.1029928206973487 -1.3868047541449993
1765 1.6072932454702131 -2.859922365575823 -0.8658580261933493
1364 -0.1755237230130176 -0.205146800251514 -2.1719449349940856
1365 -0.8212386117608801 -2.4702948588907687 0.49952437839216
1367 -1.110185541233265 0.4106655764838651 0.742566818797637
1405 0.6060518597076547 -0.7254697442309501 -3.157503679748545
1368 3.385522427124783 3.205230538380113 1.5726994875447415
1366 1.996769281024033 -2.3162529011648694 1.2540935961343103
1766 2.0403231121279974 -4.45426516480555 1.2999359037259948
1409 0.6831559411827145 1.1382224348023129 -2.639686082102213
1369 -1.3570240484198017 -1.4327340465010523 -1.026875502267205
1371 -3.1657593597060956 2.4061161227666514 2.802011628712861
1370 -0.08540152883785794 0.9628763232476311 -3.1037045997426116
1372 2.345516082330686 -1.2105576952908514 -0.8316748781432849
1373 1.331160263915311 -1.3916252733317664 1.147634994793292
1375 3.2241295896514996 3.6739802675577122 1.059386507535981
1416 1.765706905964129 3.607349279583005 -3.62333222870686
1376 1.5620582632941813 -0.3731112449237864 -0.4621928761039485
1374 4.270599659712814 -3.8838261329257704 1.0292506639662298
1417 -0.6067625476450481 -2.734177378749938 -2.1868869014047307
1377 -0.3153654269839049 -1.692094399819149 -3.2376816581727814
1379 -0.1304748979494033 2.9406080009382607 1.9932971132951012
1378 0.523873958607536 0.5563975887511982 -2.9139857808325744
1420 1.2982020573216997 2.6754329972733366 -5.441486222320995
1380 -0.6554979330670011 -0.5337504175417436 3.2547644807579994
1421 0.5150753961009908 2.183603015915105 -2.010646198649329
1381 -0.9968378607513431 -1.746459600826686 3.400377251563376
1383 0.5568330725584761 0.06575452853981031 -1.0684529732091181
1382 1.6630713691848622 0.32394637954737354 2.2317241812611046
1384 0.5462109467943876 2.3590600874157373 -3.0877514706036573
1424 4.38688791728807 -0.12022106528838222 -2.1966038334918885
1385 2.2203430903195653 0.6702342513872789 -1.8822448862460315
1428 -2.0359821977795485 2.2822547483107756 -0.0042932893550020005
1388 1.458033706489057 -2.9066936938061545 5.474830713086413
1386 0.6094456033957586 1.4965625290252718 2.938948870361223
1425 -1.1828938375877422 3.1707384115692188 -0.04341016741627277
1387 -2.405454024218271 -2.4783947083709843 -1.8604539398517208
1429 -1.2220075937006512 0.4676846876392293 0.8549048661770102
1389 2.3639507128261514 2.446376660020132 -2.260410293613462
1391 1.661954099405447 0.6079060844721251 1.0842758299749273
1392 1.8327968950144358 0.6804161744167709 1.950030311092235
1432 -4.050780179617105 1.175896829427004 1.5298649403053002
1390 -4.370930273934066 0.609876170907483 2.5815879867475857
1393 0.0893418691275186 0.12344496196538018 2.099757666422751
1433 -0.3652192711982938 1.7444858487309898 2.1977149491721524
1395 -2.6157436673519783 -2.714012951185191 1.4202354310700382
1394 0.17689413871916232 1.215430917343737 1.0708278888784353
1396 0.5211319353415829 3.0896321668465747 -1.3975484941141394
1436 3.1106724228345937 2.189072104455186 -2.1830031214918755
1397 -2.4442181259974585 2.115758361468114 -2.399924705674976
1399 -0.43499446278667775 -2.1967973708542594 0.9742400886158128
1437 1.652705343491345 1.6512600813065454 0.8827263214482408
1440 -0.37377077012296045 1.7827903894697552 -5.32214266099677
1398 -5.816155159609279 3.333516007603847 0.5366225439172299
1400 2.202512510504952 0.0018816692345524683 1.1067803108047205
1441 -0.524217946895579 2.086737125759278 -1.7072533058732655
1402 -1.5605720511216796 1.1909581530127755 4.686789771482378
1404 -2.563040231152944 -0.26506541861168414 3.151037490970131
1804 -0.23492763601790853 1.8752503299638874 0.09683554734710952
1767 -2.2505062569173635 -3.4648450180419816 -0.8725060879902508
1805 -0.9566051489532905 4.193459796927547 0.8310500440384667
1408 -0.06148806715653428 -1.6425529399057839 1.030626695407216
1808 -3.3908091952897506 1.3861516899051862 4.158382879617727
1411 -3.727185905212532 1.550394332750486 -2.914613938402928
1412 5.688645875708931 -0.18587255173749215 3.478335945354864
1809 3.3572402344523113 0.9684237114061777 -2.850400864420551
1812 -3.7731025218445473 0.9553754441114135 -2.7403618348640215
1813 -1.3921286875476682 1.1820533873908599 -3.1304470033175535
1415 -0.8610275683912818 -3.794867806173892 -6.08055157732765
1770 -1.1828684793086663 1.185338864259963 -0.28817773981672473
1413 -1.2914750413921134 3.5315810108579067 5.1639145864796285
1414 -6.577643087549798 1.5060979566201986 3.190621290608337
1816 -0.8446195861119038 0.30808377489883615 1.1653242824462542
1419 0.3619854604897769 -3.957127052596819 -1.8895173509430312
1817 -0.737569137909905 -5.779374503719848 0.17656968880830176
1418 -1.3562001963308745 -0.8263777029543738 1.6310113382428262
1820 1.6301530442581131 2.043830857775747 -0.07179812204213953
1821 0.5707893858277941 2.1271740306010236 1.082859598524591
1423 0.8411588866227303 2.9498481056520127 1.4310375802792603
1422 -1.3900990941995077 -0.5005084961745524 5.122644549958202
1822 -3.567625363052961 2.2364008896910006 3.9400005557878974
1465 0.8365501399890847 -0.14723419313705005 -4.610344974861327
1427 -0.1567470833140908 2.314012464007815 4.417305369401066
1426 -0.4273991625553612 4.498977591281293 -1.940665472725595
1468 1.114330560344054 -2.400411053645341 1.8663182715567663
1431 -0.37212151020630707 -3.2482201724028865 -4.080090418355634
1469 4.661367474094214 2.689334381842831 -1.3378705159861113
1430 -3.3753033160396635 -2.3176525348762356 4.270035672482364
1472 0.793222691435328 2.233250420031765 1.3354538317873417
1473 1.213001513046754 -3.6202628130246644 -0.7470170225867141
1434 -0.11971337609863153 0.3748971101661372 -0.1188860155713778
1435 2.0328092848963117 -1.7531012386792761 3.2247919015552493
1477 2.4974617014082514 -2.711294842287999 0.06462171034318398
1834 2.760488752847999 0.1867041196903137 1.3459631805193233
1439 5.430869996660443 3.0757802959843152 0.03832810418405699
1403 0.1989461502697899 1.6568261171105196 0.529634793085336
1438 -2.418346343141635 -2.57236027580939 2.1601859518409854
1802 -4.298773969285109 -2.6284752276808674 -3.2278722537901867
1803 -1.5476357584480376 3.5770289461552793 -0.6337294889320862
1844 0.8544131857065788 -3.4174664440859623 -0.8779376929027676
1845 0.7541691924728102 -3.306721064272749 -3.1288221637641116
1807 -1.7913113129957337 -1.0676584156748512 -0.08609226266002591
1806 -1.5752017844288344 -2.1877086742966796 -0.04631073489674778
1848 5.101993179219482 -0.7770877792335719 -2.7769766439744976
1849 -3.918401145978096 -0.7728366081926916 -1.9421575840386354
1810 -0.9217825531033937 -2.094351282300251 2.261615343506517
1811 -0.9515958389234235 2.2075143581904504 4.8781991377562335
1852 0.41751679360954813 4.026491398337436 -1.4761137572415144
1853 -1.8386214266572851 -1.02903078188094 1.1543445345096077
1815 1.417326989721845 -1.6974199458566301 -2.9720409927446276
1856 2.7049171604350835 2.500781147236104 2.9202045919437065
1814 -0.9859224868466459 -0.8616680112874187 -0.8002312334435845
1857 1.768430568918953 -0.8818627679747895 -2.533088993007462
1819 -1.6016914543391183 -2.6305460979217794 2.242791097958377
1818 1.1022397765741145 -3.384309365711708 1.4233582532152742
1860 3.3555077521598076 0.7664252166914716 3.2626619408981563
1861 4.852495833996482 -0.39383381452213545 -2.932471950035921
1823 -2.990472041654716 1.870704337570554 3.853840666199363
1864 0.9420705155492448 -0.2294133974387446 -3.251599102583656
1464 -5.132902589810172 1.909460373155289 -0.23899948604760599
1865 0.4565762772074554 2.315764298755256 2.1877367019986513
1827 3.428842939975773 -0.5855836666242258 1.1566278373557277
1466 -2.159433227480203 -2.777138928567515 -0.6784321475815183
1868 3.4796060490038316 -0.0051807610128394065 -1.1969338191329029
1471 -4.592234880810742 1.04784869454407 -0.2554953305749944
1869 -0.8735385295251419 -1.9850841143193392 -0.7442204263840912
1872 -0.23114170873739937 1.0217948358992959 -1.4427849031746287
1470 1.2699825036268277 2.6483766795612067 1.5404979783418813
1475 -2.756622765386722 1.1391407736287384 1.1939228216276538
1873 2.31832095974542 -1.033339699507998 1.4366307732976091
1474 -1.922623042704095 1.2176434160289191 1.2902341846811383
1476 -1.139816785404653 -0.6093160415268634 -1.7639650915543676
1839 -0.7247668698736228 1.2364662114089078 1.746612746503394
1517 -4.352959022561517 4.269607971180043 -1.883645508983723
1443 0.1571200900252939 -3.1820440360687505 0.7849302841960983
1480 2.339920264265677 1.5914719478240964 -2.21335215277376
1841 4.81709401434016 -2.147394771447861 -1.341591666060898
1842 6.925822552549054 1.7460773317403373 1.5388785211457205
1843 -3.0623728345447048 -3.9685103698919084 0.8396523901566099
1442 3.4887633896828207 1.061576194178286 -3.1103458122887537
1883 3.2706504341571594 1.127719818768196 1.8629034681645984
1881 -1.852225465411217 0.4516772108071067 -2.253277554322522
1884 2.4382459629149844 2.8178685412340063 -1.3356187334216316
1847 3.3908105350384106 1.6276678111586698 2.0386186040605514
1885 2.440234140261617 -0.9635812129515555 2.001417059542053
1846 0.8335630901331474 -1.7912391164512633 -2.3154909851213166
1888 -3.9105169397044106 1.0801105211767639 -1.7274649557132962
1889 1.9035313154296603 -0.3054109404115189 -1.910132461038577
1886 2.7276247532857223 -5.572328280435638 1.3010655621958431
1851 0.6410769038758866 -0.10286884714900385 2.200917101760041
1850 1.8826543738144452 -2.578792705572723 -0.13479506257107648
1890 -0.8268851513959995 -2.518253594109909 5.9193020852362634
1892 -1.6207753833484233 -2.6573349254177985 5.306882855730326
1855 -2.1016116478929066 -0.6558944096093259 -2.9081167797190473
1893 -2.4326242919845344 -0.4005461924133576 3.840407028984226
1854 0.54841519641013 3.8946851206153945 2.269018597999099
1896 -0.3103359366875501 0.46131354492156695 -2.116994773381189
1897 3.3581679161406104 -3.4412412751532933 -4.370043126713887
1859 3.045180929524882 -0.16396047084673895 -0.8414069409374496
1858 3.1979232695320303 1.559466954853296 -1.825653261289565
1898 -0.12653722585661162 -1.689642673273767 -0.7950365571399027
1900 -1.1839663024163187 -2.236362178063612 -1.5615682034251868
1863 -0.45355154064733283 -6.093427016773224 -2.276693561122404
1901 -1.8701377848720493 -1.1923391875641756 3.5066532129257797
1862 5.163406744173207 -0.29840174612758014 2.780844777591385
1904 1.7677442494172892 2.8889865789492783 -1.1702261920151766
1902 -0.49072509044085477 -1.026020443307899 -0.9351735303679374
1905 0.4093564772057584 3.7835574383931467 -1.035283506760348
1867 3.6205615766845556 3.653383125655784 1.160849490399981
1866 -1.0256709928986052 -1.9185914408360616 1.8372522776431022
1906 -0.5492204925219335 2.8175674951748317 -2.205318532632389
1908 -0.4074954673975223 2.400999998257201 -0.8167574760161966
1871 0.7554255230271276 3.601791505303666 0.5676144786162837
1909 2.0280407715796054 -0.9321759827939113 -0.8252431477354134
1870 0.8861307079458299 -1.0579089434010782 -1.8002127995101478
1912 3.0584985953693153 0.4945718297861756 0.573630276371565
1910 -0.13265761540521143 -1.5630634054625008 -5.728608085962247
1913 2.7075444612660973 -2.4984691381124966 -0.8814298094502865
1875 -3.1938599089365702 0.13460523300063934 -2.568692506171631
1874 1.0233714857731564 -0.4727873683933738 0.6218045088452576
1914 -0.8499171802210165 -1.06294517388236 2.777955156868054
1916 2.830774279103236 -4.10094247268368 -2.673084412737539
1876 1.8460445908594232 3.8145405756669346 -2.192497045932982
1917 -1.9000331443960907 1.945946021871813 1.0483102367999937
1519 -0.15250416047225251 0.7527870821386111 -1.4272197907523692
1877 0.8289025416288328 0.08276987560515518 2.698530103795018
1880 0.7643750262339748 -0.7758075590768497 0.850433544345534
1479 0.19460386187341241 -0.8094897356286758 0.8670142741069474
1878 1.3954841124617812 -2.8234674615663695 3.1078387701110906
2322 2.5356246474439668 0.35178366143865314 -1.8195097520464318
1524 -1.9126668965616525 -0.6905734630447014 2.6062648632847796
1882 1.5810687273748552 1.0546867825673307 -2.927793355644304
1887 -2.9874465094801015 2.922847793182404 0.013810571112483442
1925 -0.08021018082594158 1.8200695399998075 -1.5324891878946192
1484 0.8013240965902423 1.0744362824092941 -5.114042728916063
1528 2.2144987964850444 2.467227279555598 0.34714074903025116
1928 -0.32140651187124525 -4.167401901737168 2.7405995160444556
1929 0.2639972540484513 2.517432646169733 0.5615255633713193
1930 -1.2287659842051053 2.203105650688759 2.494476645623618
1931 1.3437301946742877 -4.478539690984215 0.9503415923665185
1891 -2.92747935761703 -2.1599865024293883 2.4227045002802012
1895 -1.751594910171387 0.39424148262061254 -2.3898294651190035
1932 -0.6408317530694024 -2.204103718137727 1.1271966096849524
1934 0.6704749631546196 -4.189716438968422 1.571278844743418
1936 1.851324715525847 0.6799341686420061 1.1918703384802118
1894 -0.6350733799318373 -3.0528742560456386 -0.0647602718375558
1939 -1.0290710941810766 -0.6611486518074033 0.796308160297632
1899 -2.9723345631693014 -1.7330712648168594 0.3834674103684822
1940 -0.9062828093377576 -1.9780973165763185 -0.09931152455984602
1903 -1.6421180675373857 -0.12184923561430841 1.1060471884188279
1941 -0.12269468897998603 -0.5192634158817505 2.426194945672836
1944 -2.1030554227007014 -2.2461047220858847 1.0470058865847922
1907 -1.494882274563381 -0.6644139662065501 -3.0096975641544006
1506 -0.4399886212717387 -1.017866888411923 1.7538832672609121
1945 -1.3629914975461042 -0.2165048512758559 0.42518769150777463
1948 2.9966559662912395 -0.00017460095082388462 2.5397968093946552
1911 -0.03411673800211213 -4.148998344497474 0.31277232570330843
1511 2.826817485091498 2.3819974487879407 -0.8048898729564959
1952 -0.9738608157503692 -2.6892967505714482 2.727309622259432
1915 -0.927867187386769 -2.247996041539875 0.3039861957994075
1919 0.7691610633816997 -0.2730171601042538 -1.654107010849761
1953 -0.7649129788086192 -3.0665557792246707 -3.668559090731984
1918 3.5414499338864944 -0.1390382330081098 3.7785672442428213
1120 0.8883042852576365 0.7154000011734866 -0.3464119088664347
1960 0.6477024486777287 -0.15645679304502305 -2.7730439147817636
1879 -0.3319225359442755 -1.55063833157217 2.5629136049300407
1920 1.9680888537660002 1.6410340183715175 1.2976819032185973
1481 -2.243329698657671 -1.4137044839531023 2.0198261791449736
1483 -1.3430143792649167 -0.855327029792755 2.7832246418407425
1523 -1.3469612998576714 -1.6715084572720418 0.5185724845724449
1921 6.497444890461113 -2.9515921199140362 0.5577402088733805
1527 4.702334822213218 1.6441172141568152 -0.8008758969924209
1922 -0.7850370763829598 2.1498931331195483 1.85325308298627
1926 0.5637121643366924 -3.953056342414743 1.987011291592188
1969 0.4579803776666571 6.979177477402488 0.5250251655307513
1972 0.8733677216702599 1.0630877597714703 1.4148548418693014
1975 0.9495017727590792 -1.609356347060406 -2.7650464495313622
1973 -2.7541082899581126 2.1543782630837973 0.4614705674183621
1935 1.562294313804561 -1.6619474024578753 0.632289469219654
1976 -3.33733947233979 -2.9352923747774398 2.367823586118171
1979 4.652441376333854 -2.776338833988301 -0.7991669413589271
1980 1.2959766665700214 -1.3358527602352857 1.6263593436365273
1983 -0.4902313260909577 -3.0415840784706205 -2.0102394812343545
1943 -2.8006205077099913 1.1489915313070138 -0.620826223178322
1984 -1.3986514282092721 0.1738228039021976 -0.884905999218879
1548 2.2851637926960287 2.8730839738019767 0.45663932020547565
1547 3.7445489924383186 -0.5054513476288376 -1.7740068325792637
1947 -4.81093824767335 -1.6837130102280178 -1.5184005288089268
1949 3.1604951090367543 -0.4625558293279877 -6.46586689139936
1549 1.0612926357522172 -3.3361338585305034 0.5850976297570047
1510 -1.01707580148442 1.1662898435753155 2.777483997489183
1956 -0.1757141258793245 2.744200193738125 1.6495572398618734
1553 -0.2569757954382622 -0.21404974307977315 2.4289154714094394
1957 -5.873168351077343 0.38722982087687907 -1.4612969339248623
1556 -0.730087612141809 -3.940250736032383 -0.6287884213463677
1959 -1.6926295071166244 0.5857176123701952 1.4787417882648062
1557 -1.1511316798159072 2.4722863997751725 -3.663778494068617
1518 0.7934761509468596 -2.324865747583634 0.5913386365466312
1997 0.3186823612850985 -2.3769583485979378 -2.5893223147384474
1958 -0.7787427950093351 -0.5856254644477434 -0.027708719502510065
1961 -1.0551766839972274 -0.08210726316196111 -1.7637663791387292
1563 -2.1880651423379924 3.877960406180149 1.9126755765773151
1564 0.41064555862503704 -2.4829062396892434 0.8145930912244995
1565 2.6801525179432444 0.11348823685512228 -0.5329340403618829
1568 -3.943949554026426 0.65273758269502 1.920804113569263
1569 6.80559563247878 5.368905404008887 -1.1004858815400929
1970 -1.0967189867642182 2.45737826008689 3.194655577529523
1613 0.24255243989574368 -0.23648054962380963 1.3294775197810373
1576 0.7488340097853368 -3.6072898270199794 1.86665958451791
1579 0.4563693968614925 -0.9141016809876038 -1.0240450990957743
1620 1.879503120181766 2.6807671058819973 2.6695725692541585
1581 -0.02155641331356721 2.7825451056326997 -0.5352933346185632
1542 -1.373598910252651 1.6777875785497278 3.9523343169403984
1585 -0.5780197166024648 2.1636778254279636 0.8106455954769866
1546 3.675065697562084 -2.915295233245735 -1.1563809699749537
1589 -2.470324688679667 0.3113895050151279 -7.2782341283358
1550 -1.1461291052862947 0.4592379000800441 2.9961874954444867
1593 1.494200491797126 4.782414910637211 1.0197446833784456
1554 1.306051333136564 1.5758752494994268 -0.5232910163917281
1559 0.9923107592191049 -0.04468927247604622 0.6065145696181261
1558 -0.7110400879135107 0.6620832658340049 0.27783978143557203
1998 -1.6744304246687014 -0.9973112180444434 2.127999107156744
1600 -1.524986299331748 3.8933985433908993 1.8817612709396578
1604 2.4586834003416946 -0.6245805022682421 -2.233394925595593
1601 0.15811168581826235 1.294115613290262 -2.4670121521994863
1203 0.37856253161370806 3.091542703308295 0.13061762251365955
1567 0.13172824090855492 -0.2244579033632918 -4.8889122339981705
1605 0.08662508276122934 3.3294699648225454 4.092785342754375
1607 -1.163866863836055 3.172551134129354 -3.171478670877344
1611 -2.4053295263430834 0.968508239379018 2.5706202599205232
1606 -1.9665452775960495 -1.6948152619308887 0.8993901987173687
1208 2.232042704503066 -0.9747656735671036 1.7150177730834657
1571 -2.2524818216664304 -0.24028493471547047 3.231310370334573
1609 0.872522990187403 -1.5133908537353866 0.6777710124598851
2053 -1.6051599075189429 -2.4959242576970313 -3.0086717674727566
1615 0.34134047026575637 1.3104326082577065 0.8298662127312095
2010 0.8829044684256053 0.686840669347156 -2.4291570372651208
1610 -2.7715682371255763 -0.12047469686955073 1.2062697687162556
1215 -1.4937376341144617 2.5405006807190085 3.2891402412011503
1616 -2.542400502328128 -0.5770848205464447 -3.5175364771149242
1656 -2.6184290998587247 -0.41493935461716414 1.5996603804945149
1617 -3.3121473221612585 -0.17817229137379964 0.06359457518432743
1220 4.197720721654235 1.9043740333695285 5.619295476188731
1619 2.47331789226226 -4.896260358831993 -5.878549751585863
1583 -0.8946112059475695 2.456234555856113 2.911846802438011
1621 2.2468453396405983 -0.2584228757683545 1.0194707877477835
1224 0.2716802053401833 -0.12490903039143819 -1.7354047401640698
1982 -3.4127345854726667 -1.5117356242576454 0.8553069391710932
1625 1.2316211347115367 2.2707491409937597 -2.3960657123549027
1622 -2.7536737052259577 -2.6280678193621054 -1.4782022501130918
1587 1.002030089179931 -0.9149690074829149 -1.2742331621160543
1986 1.578751266941929 -0.2886653852506819 2.949139963127644
1228 -2.097757156535507 -5.420316093330802 1.6755373098770592
1591 3.00386549871363 2.830506700507032 -0.666667268607134
1629 -0.4983340311115351 0.5858393835596445 -1.1026677119338173
1232 0.30237902357088053 5.5739749740086095 1.3348813990177752
1990 -1.8854245008229393 1.5320986986633525 -2.6228099656750494
1595 0.1336793276769358 0.4161408438834397 0.3554364215751517
1236 2.9203768772357868 -1.91705899893408 -1.0286504785482053
1633 -2.9373559335417734 -2.873041559800612 0.12154586190867993
1994 -2.0311762453227575 -3.623889676009708 2.0011726596668247
1599 -0.06193937015452521 0.07094414409520809 -3.8256025224392762
1637 1.9200903239050828 -0.4667619015229922 -2.8543662025373946
1638 2.2870831264968534 1.312315416965542 3.7235172067261897
1603 1.4795679955305159 -1.034123562482073 2.2775783061813235
1640 -1.1918635034194138 3.93133206931463 2.958222177969133
1680 0.24834293206505403 -1.0851143183543577 0.9140601964144456
1602 0.48470839665511845 -1.6312757245432268 1.2660667967544186
1642 -2.8818143180095626 0.10394976515288587 -0.025477669719728105
1244 -0.7266097155400536 -2.6444148162357997 -2.1001288205677127
1645 -3.201264360225694 -0.04765121720131636 2.305681647074777
1207 1.082417525025516 -3.3036968753019105 0.19942268260401
1649 -0.5045117584818465 -0.9889027305992536 -2.630076570262447
1646 -2.393721099990999 0.5940508488249322 -0.8868822095835568
1652 -1.0405247613484647 -0.01530261121162378 4.241034008450098
1211 -0.7678983777874394 0.5153712823201301 -0.7695447748830373
1252 -2.7220449208550996 -0.1973090716026457 -0.5275805972647488
1653 0.9812046069461663 0.6475794759459892 -1.797800026406609
1654 0.8638631698157689 -4.80670669148031 -0.9921401766773713
1219 3.569688339907497 -0.8311734773611076 0.8898835990868211
1618 -5.448735597471247 1.3550075600938345 2.261927149770049
1657 -0.5612090744818025 2.7751518214932616 1.5335484095636769
1658 -0.35588784084546965 -5.005271267403706 3.5517812993810374
1259 -1.8373229665145288 1.254269085785562 0.8037027186634684
1223 4.686146306907774 0.4180972898557995 0.9302510012529926
1661 -5.543007175997584 -1.6261751437627527 4.603493478051744
1260 -0.7096678999995923 2.5947143820686094 -4.479584705193021
1263 1.4868579952204304 -0.47955663607140736 -3.78866941782482
1662 1.293204995992677 0.4099034871742081 3.2515968242671813
1264 3.9557293682217285 3.497720517528458 -2.857930172788001
1665 1.106474424179421 -4.3797271133385385 1.6966954076836442
1626 -1.912463342598614 0.2457220813288294 -4.430837016264831
1666 -3.2309840412681434 -0.23768881007625534 4.341735707979583
1227 3.101078922248214 1.824995099517184 -1.3045447527739291
1669 2.120496203186185 -0.7841994097241899 0.8332073423080144
1231 -0.7508720709439853 -1.4566741399556822 -2.7392522389391853
1272 -2.2189580397100332 -4.679728464173248 0.13071046878223852
1670 6.885260958004124 4.485028850316366 0.7188232138541659
1630 0.5385657903168664 -0.157441420386781 6.339120773696239
1673 1.1838309537128353 -1.032810967742475 -0.1847757753578013
1674 -1.9575972246975955 -3.60138359340186 -1.2595029601207084
1634 -0.18240865313581517 1.9018378745603786 2.479287646151885
1677 5.311245533045779 -2.245767163062507 -1.8580868498663534
1678 0.2924815260049203 -4.475780258846775 1.471798445144336
1641 0.966123173237558 0.191513244214392 1.7413968307572512
1682 -1.2076587110718286 -0.46097554220667025 -3.458528591523706
1685 0.036227792555704984 0.8291475667851856 -1.25396499670191
1686 0.10701187534691783 0.3033471885372323 3.5314292112455288
1689 -1.2201634219128124 -4.0709390457515555 0.14420600975518225
1690 -2.340345138774177 3.083421311819714 -1.7977469793889045
1650 0.862387907337478 1.2578976895023413 1.1524157713333998
1693 -1.1974068420380481 3.939918045291641 -2.7637816833597864
1694 1.142219157871146 -0.8037972936613335 3.6030584345991676
1697 1.865468107743391 -0.23123906090774027 -1.0261046470807431
1698 0.004631973989424442 0.3870857900250643 2.601536064291312
1701 -2.417463430278373 -1.6350534867692024 -0.8379326291411667
1702 -0.12220070444723291 -0.2239697581636152 -0.7729401189373876
1705 -3.3253026723277093 0.7374080012626836 1.591572397324786
1706 -0.486422135500021 2.041465241860197 -2.65911690952748
1709 -0.5680360301436471 -1.8071732170932728 2.7625954433077604
1710 2.2898617117495226 -1.245974494370791 -3.9914436171491356
1713 0.4690090177913311 -2.2756197557320057 -0.02440423041621749
1714 -1.7296800514150985 2.7885698056478576 0.12640216706378302
1717 -1.3124056055832622 0.18764008928049702 3.6114496092459967
1681 2.98295431409799 2.8962589426028695 -2.024792554448601
1718 -4.013690578519272 4.29310045229624 -2.1321810478903616
1722 -1.1529558923777452 -1.3913562167657632 1.089622663195736
1725 -0.6011465398671471 0.02570774438317483 1.5514152578126534
1726 -0.9193272016603503 -0.518071009777297 -0.24355197198177128
1729 -0.5050565552550064 -6.9953466211749475 1.8989793441842269
1730 0.46160060517267715 -0.9657435908747923 -0.8343720923923643
1733 3.157583890694268 -2.102986199381949 -0.5690065181464894
1734 1.4111244999431825 -3.4600413452928875 1.6228564971971113
1737 4.016468538284309 -3.2188470311371793 2.392165576112379
1738 1.1448758918424222 -0.04271000916276226 1.9019488614828202
1741 4.46807874006759 -0.3192724966078512 -0.024056429374672016
1742 -0.1577596048424441 0.5528974198664051 -1.8700260407094187
1745 -0.9655374153306495 2.7122773441720707 -0.2952839636099792
1746 -0.0631562385811412 -1.6403084572017375 -3.2289761242398973
1749 0.007987404870411252 -1.2749684318809424 -0.5351202050450872
1750 0.8646077002019098 -1.404634876246954 1.657740762730863
1753 -1.3116307070141267 2.20444772917182 -1.5115858139097933
1754 -4.670252426808542 0.28582832699209726 -0.25351320673594485
1757 -5.558956482908093 -1.3404647945730999 2.3085732543911255
1721 0.5345103910184968 -1.0754837775913573 1.1638183570420155
1758 0.050810938911953554 1.9341844395223302 -0.7305789983838202
1761 -2.416454224179419 0.1508622271061132 0.72021352113768
1801 -0.5944544620613827 -0.3516806227677766 1.7375146576577698
1762 -5.368144538422041 0.9293265832441077 -2.8589715847858552
1727 -1.1728798629333665 3.5469254748486105 1.1983432036118187
2165 4.714521460670686 -1.8988673895753998 -1.7176163586841717
1768 4.941901911289768 0.00017185192836039178 1.658359563464791
1771 -0.7739671872463296 -1.5029999141345505 -4.37819851945375
1731 -2.451913749786997 0.6287627570699755 -0.9629613549007999
1769 0.11987189255012044 2.544638047624287 -3.8471678568543246
1773 1.9744336867783128 -1.7267470889981533 -0.1206755246644058
1774 -0.7920598957587052 1.3601255471829816 -2.8427243892870067
1779 -0.08432542508239683 -1.6626872935171866 2.5070719515483697
1778 -0.4675243495616914 -0.4922694217438302 -6.274091345994124
1777 -0.4974740539374469 -0.12277761969276482 0.9874864630386292
1783 3.3583985070691997 -1.4696613784483328 0.8650285271726735
1781 1.0725057510055402 -2.7460238814022957 1.5989163314534085
1782 1.4425340570943652 -1.6346874431710372 1.5781802010065678
1785 2.4524249572659165 0.24951560684836901 2.379193847655969
1825 -1.5627647644488833 -1.2119930026200307 -4.635991378456534
1786 4.01460613472782 0.8808687755085626 -6.558204075069235
1789 -1.2836563859974655 -3.595576840911599 0.899337607426925
1829 0.1023964211649198 -0.025137300616300675 -2.3915608133273922
1793 -0.49942233867444696 -1.1114589943541453 -1.5863094080210107
1790 -1.288017646939774 -1.2324281353427629 -2.50194317608632
1833 -0.025678603167172437 -1.877062454464846 1.4808948160294615
1794 4.7469651204943775 -0.0878754917936116 0.21877232787381187
1797 3.7110224707173933 -0.5460677873642923 -0.35465014716178744
1798 2.7143134537542752 0.9564898661411425 -3.710328013913117
2162 -0.8048462673375905 0.19816176652100498 -2.623293470919706
2205 -2.0266580844428295 -1.926409549125965 1.9960699118945335
2166 -2.79983560799113 -2.170958119661657 -0.38687813811746125
2209 2.414750081715897 -1.5113867259088976 -4.421273423538559
2170 1.1849137709120054 -0.707643388750161 2.253156813641019
2213 -2.039071955977738 -0.8924873672944371 -1.2524027297584848
1772 -4.571147775305169 0.20050101163070289 -0.8193263989681205
1775 -0.803755488103018 3.431066904046124 -0.8586968352270783
2217 0.5232558947589773 3.6817219869177893 -1.2461400994237886
2178 -2.1715878373137354 -2.04915247332293 -0.5561431004703106
2221 0.7350690702893752 3.2072783372089417 3.2360976170655253
1824 3.434884564169795 1.1405878240525673 1.643526918692762
2225 2.1040666743263596 0.03460004733187998 2.634544322491726
1826 0.08743671453504308 -0.33700867681177965 0.04356389731422586
1831 0.8653250672607757 1.5361566683544996 -1.4574455359547112
1830 1.8036560495238592 -3.1242151974821297 0.8559294059344335
1835 -1.7069269984054323 -2.049444356609415 1.341869095033664
1795 2.4383255614467223 2.178818292503705 3.125319332418402
1837 2.4961213805142286 -0.049441517846510845 -0.35553589897951127
1836 2.0410533460855085 0.5939775699531017 -2.4003775671442984
2201 -0.7046552708189115 0.9243044164750986 1.8384547883909885
1838 -0.0375147982059551 -1.6589968260514136 3.410386202735208
2202 4.832240935511875 -1.5851590513577645 -2.2961710633305183
2241 -0.7657647907949018 -2.67488011720468 3.7688153050221422
2245 -1.797147190162786 -2.316427303785271 -3.334003834951694
2206 1.5827991926567597 3.577135178713515 -2.6419740419779356
2249 1.7757087073306579 -0.3009541528338608 1.5778039367857515
2210 1.1653057581453907 -0.1619816438625766 -1.6093920738450895
2253 -0.7211486335779657 2.0951241166283636 3.684557131176101
2214 -2.8141242060609275 -0.38581753964326004 -3.745493949140515
2257 -5.908739561584258 1.5374930285979267 -1.2326621373273483
2218 -0.9921421798316247 1.6950480947468096 0.16173685580989228
2261 -1.8506278213378606 -1.9312121291335829 0.6212477733086013
2222 3.3278847667831846 0.08429354559138227 -1.9743107072841466
2265 -0.5145103864822133 -0.17787213152938552 -1.0944212138979763
2226 -2.7917697305607887 -3.0858712776872 -4.253984791567521
2269 -3.075507036052887 2.1599234621271393 -2.1582370752499327
2230 1.0957274085589286 -8.297947493120542 0.44222733598856484
2273 4.049057401037906 0.17368575696619515 -2.878332720300865
2234 -1.5483110124302213 1.8511701128381635 -0.19948659828818913
2277 -4.336305318930824 -1.0794057936702048 0.9436239753343135
2238 2.0583900446437555 2.911051955176534 -4.063676734706333
2281 0.11333031515845308 2.446724668447377 -1.6889463152443787
2282 2.2135904685451573 1.6829585723706284 -3.515542529763252
2242 1.6007537640518268 0.9718370406929285 2.4249955341256415
2285 2.0162690067791553 0.3728684751283369 1.8106802748003443
2246 -0.237097986411359 -1.0419936610614622 0.7849295394967781
2289 1.9517154541773776 -1.6349633424765508 -0.6683376720050933
2250 -0.2558244145149307 -0.7034749540349875 2.5748109831137636
2293 0.8015546083408562 0.7583247417563068 2.20480127250243
2292 -2.146019061330826 3.6727690918786573 2.561679052892763
2254 -5.1043863260773525 -2.920930877736762 -1.7469290138370417
2296 -2.5366827146001234 -2.332566413465222 1.6633848534576647
2300 -1.1020981489409958 0.47027875804731395 3.1123154453546062
2259 0.8730945687904107 -2.4311576634234697 -3.1876805804236725
2297 -3.0034844695518617 -0.9065897886265302 -0.05862916365346076
2258 -0.8758370935075591 0.011396686366160667 -2.6799210102737923
2301 -0.20501428287634352 -0.9501637955272733 -1.9153810204121244
2263 3.4636615118601672 2.8938312755550872 2.5344125629469656
2262 -4.2649639853172205 0.030406528265123425 -1.1431987328834583
2304 1.0178214514570054 1.3470995926229985 -1.644334320540372
2305 -2.834388066416794 1.0378453378422163 -1.2207253663385673
2266 -0.9081974968737988 -1.3398685089242985 1.4108578069138202
2309 -0.22207287319459118 0.6719521041327252 -0.42580856800349304
2271 4.843724597599938 -1.456929877529861 2.0609172889335023
2270 2.422288815779636 -2.6883703395313017 -2.6534376004823534
2313 1.9621247635776893 -0.13200703463690133 -0.29966971565197925
2274 -0.15007346466004473 1.185942669273173 -0.3232034989993446
2317 -3.7807798633550345 -4.299279078354055 -2.7814439054804043
2278 -2.172952347563308 -4.243261893344385 -0.8851683244659307
2318 0.07748874475612498 -0.583373183550869 0.9059105170567907
1924 1.0764667919198496 0.9802720953605746 -0.11722186025861571
2321 3.9453749941341836 -2.745672236017985 3.879883985983854
2324 0.023319842017875132 1.0605369632127475 2.0186919346207635
2323 4.674794533867034 -3.0708001513314227 -2.519864345011313
2325 1.3511119782937835 1.8085163597393412 -0.7503865124434369
2326 5.4538481524443005 -2.4314330857077864 5.048095538041629
2286 0.9572558131829438 0.0821749746675378 -1.6769714269580982
2290 -1.9351022671518012 0.2658134539447747 -0.2830369672382682
2329 -0.375185869294803 0.41428085160139977 -0.18795634591701346
2331 -1.5142169337295273 -1.5869663210128013 0.5453025045580475
2330 -0.622587677879518 -0.6274578160172377 4.22543338210997
2291 0.6646611633498358 3.451377907326406 1.0426367658736004
2332 0.11184505662236817 1.025621731170438 1.0305564046822417
2333 -1.9742468399583095 -0.9329786284708237 2.5039353839169247
2295 -3.698021232808568 4.165575170210902 0.24931446735365656
2335 1.2350345525532542 0.9936471836855005 2.978916775307015
2294 -0.7859133251418008 3.929952622683924 -1.4900982919400274
2336 0.28883412822570365 -0.3037626360456419 -2.108081493791938
2334 2.808848032734489 -1.7722855203968386 2.710721362534895
2337 -1.7861410207047255 0.8288097030451377 0.6860289717550148
2298 -0.9262898820089491 -1.0928994644228058 -0.9365312729763955
2299 1.5930956729446677 5.300024529551488 0.15914396304761286
2339 -0.4313953334114254 -3.5328551531790757 2.450967941482249
2338 -4.628676763718122 2.9925825624039972 0.5483514791487464
2303 -0.39663740659141394 0.5370196702843073 -3.1342130939980644
2341 -0.914903637063301 -1.1235848516992408 -0.2404978225640074
2340 0.5007561225446071 1.4736758529377774 -4.65861603255396
2342 2.86992571911413 2.3311851593742 -0.5776080885645146
2302 0.8842507234501082 -1.916832397989561 -2.0605600485803524
2344 -4.477382330206449 -1.487468266289127 -0.7884740224347363
2345 -2.842886468928771 1.6174361473578303 2.3460938172934656
2306 0.48396564530253117 -3.0623491056288454 0.29757256411718747
2347 -0.5691126857610891 -2.915473984262124 5.802569443424009
2307 2.22631276229582 1.586267557354475 -0.5754986060404245
2348 1.1978702201192883 -3.3600452182948093 -0.5206670278330349
2349 -2.160422486474424 -2.38231079076545 -1.6233360174952258
2351 1.2781704649385877 1.1826219240213502 -2.760187528445414
2311 1.6690953896322895 -4.254058544046555 0.9571837835007286
2310 -1.9579541521956922 1.27205234522255 -1.8231272135560523
2350 3.9491211296799342 0.8871789825470361 -3.388839038289465
2352 -2.674720755270942 1.1012462021175762 -1.5455133294844505
2314 -4.392440410570096 1.8215076419370377 1.5288877026080088
2353 -5.16761542612538 0.6209415145034627 -0.3880726354639798
2354 -1.7719968752129318 -3.4678562465965843 4.750868525833061
2355 2.9901401933049354 2.3363529593008 1.590466162317085
2357 3.433922860177051 -0.1926500263561363 -4.780871044136772
2356 1.1053384515892302 0.6325515408025622 -1.0590073434540315
2359 1.3357853505886035 -0.6514258494886732 6.86289746895139
1923 1.669597222521633 1.0187189364002955 4.1806052884578335
2363 -3.0972772396029273 -2.987456487755972 -0.5013532831217964
2364 2.8948782689623203 -0.9863925642426475 -0.4028522166661452
2327 -0.08979341640195734 -3.9813063075819506 -7.1887830147850105
1927 -0.288871429340632 -1.6302078714317492 -2.0839386774221733
2365 2.249777769920995 -1.7059650615388346 -0.3708335848908538
1964 -5.603064189966512 0.4756696116123062 -1.32671438763025
2368 -0.24799744827925949 1.4949749079305867 -0.5690697857615789
1968 -0.9794121418652908 -5.8701318874138035 0.3711422620171385
2369 7.127454149449579 0.08278568550652324 2.2972794328405683
2370 1.1169086550239096 -0.723249942849743 0.27550936426504574
2371 -2.455256387850396 -1.587963987306958 -1.0424235136269235
2373 -4.214732144747015 2.173850333408401 -0.18632769152941786
2372 -2.3180952324686146 -2.516493977522673 1.4819937361336113
2375 2.722105945955659 -1.1263099324772252 -2.9824490926582086
2374 1.0222500119487152 -4.17027854757374 -0.7605016508585123
2376 4.336280812849824 1.2709084107757234 -0.7733882921373334
2377 1.8200489846034225 1.4391157418379186 1.138354293358512
2379 -4.073323876793522 -2.7629071802371037 -2.3477061387223013
2378 2.230674948016071 4.379358008362268 -2.105379854581387
2380 -2.8592082140034707 0.9705153171591281 -3.0270387125321476
2343 0.1885956765283479 -2.5614975653420817 1.0843710415623606
2381 -1.4615229669753682 -2.8402844218609564 2.9351395781613125
2383 1.591440831369879 0.16311073747411803 0.19605721779128193
2384 0.32120155048407595 0.7649679458251397 -3.6312629139511463
2382 0.8819476770681495 -1.4303026797917893 -2.105657264279553
2346 -2.103761989648837 -0.12074004738952758 -1.8264851164333478
2385 -1.825418776751955 -3.296490875478524 -1.9725716267252473
2387 -1.417125290604145 0.896726404451041 -0.28172189672516224
1946 -2.7766441722769613 1.8726271181858456 5.370922718253855
2388 -0.841479669347183 2.156715146665501 2.7894880824947026
2389 4.182928789950131 -2.0470755072716518 -0.8376304544043548
1951 0.11474727982404187 -1.5122449503901114 -3.377660202777375
1552 -1.667140294217283 -5.827078857206418 -0.5125971772854367
2392 0.6980172852628417 6.189124445238065 4.237946456769669
2393 -3.1022111553646865 3.045976761482578 3.0751105542192736
1955 -2.7103427277481047 -1.4593689435497685 -1.7387938241503662
2396 -2.5698174740969333 0.24808493693251152 -2.0633823421669795
2397 1.4877471210017956 0.3659949139327613 -2.1861873475389366
2358 2.7189352671330282 -2.1657890001928157 -1.4879101643748658
2399 4.2943476991026825 0.3772737904369566 -0.22258684007655358
2361 3.759159089281263 1.8697920465845796 -2.1773058712603004
2000 0.9280117155213127 -0.7664182728689348 0.7091997459556021
2400 -1.2380816417850558 0.22473658863297263 -0.10426511513431898
1963 2.277113070325375 -1.777659015487836 2.8479561438381844
2362 1.5874900864361734 -0.8236694201147606 -0.7526255169731841
1965 -0.34773439025381764 3.2235245589125747 6.259027371933196
1967 -2.512783975872811 3.600751526324839 1.0471160643796864
1962 -3.7194512202205807 0.27620794383620967 -0.7938327156026073
1608 -0.7259963705154866 -0.04714260988797198 3.8809182364828247
1966 4.7503457432820095 -1.3908554901791423 1.2681604046144084
1971 -1.6185134711813471 -0.211150252309038 0.8472242123099486
2009 -1.1823289465524682 0.38061998551612286 1.4331782907682642
1612 1.1941121110816821 -3.463177436909646 4.701221846070678
2012 -3.172354146390148 -0.9980872199956902 2.8542327953196507
2015 -1.360839963931313 -3.8027969036455294 -1.2794820593715088
2013 0.4159567117416329 5.34820225247482 -0.2176105921932375
2016 -1.2529014640161813 4.525084926665082 0.605887667582803
2017 0.7340818776150908 -1.7088968653475607 -3.1753588220260296
1974 -5.026458293770102 1.2802287270220551 2.653244289232643
2019 2.5630373206609622 -1.8274917279920535 -1.0398216470414599
2018 1.549921388681253 0.5129925559720772 -1.9506254612183362
2020 0.5636210273649357 -4.350036604472969 1.7491420036451932
2021 0.991526167195539 -0.0934368696415548 -0.018754475597344524
2023 3.2995407751576744 4.121141722074466 2.097729584784813
1584 2.4867942759426382 2.562744198468256 -0.932003231438603
2024 -1.28032224977091 -0.22008369031349626 -0.6780596155001165
1987 2.6317923524459803 -5.001724549724905 2.2757573296128446
1985 3.0696113750734657 -0.9322292410581213 -1.7498434704603094
1588 -1.8158248347181376 4.108923216137656 1.9660327884706401
1988 0.08675816052271192 2.0078925410205986 -0.2929986508705917
1989 -2.6399004025324695 0.023203231259858292 -2.9501780813938283
1551 0.0868768411119413 -1.904624866523779 3.6607308813676904
1993 1.6497543262328498 -0.8556462472179042 0.91462105320678
1950 2.1674725444675533 -4.748802016694648 0.09650253855707845
1592 -3.0946098252539684 0.23005780787490837 -2.958284390497582
1555 0.22585309599296555 5.1530976067894265 2.1321616296669053
1954 2.5452751674856096 0.7682147490886309 -2.893906063807143
1596 1.7675143236344417 1.7173813885073987 1.8760620561703325
1996 0.7555716635409697 2.000911665049218 -0.6286174486549134
1999 1.0000361384284817 1.632644055428521 -5.047998290145518
2037 -1.749871280886314 -1.2041138218334098 -0.022463124927062064
2398 1.2044575770096726 1.8237018910165144 -1.4139871474965546
2003 0.058619736089648565 -1.161198086502332 2.7766429875447685
2002 -0.8233398653272271 -3.409673769186358 -0.08802033151643236
2044 1.5682856781071144 2.149448932872486 -0.7310343934566353
2005 -0.7189497587561254 -1.8203567837183452 -0.48349818308483855
2007 1.566840549444526 -2.601048017232664 -0.7489357838266761
2048 -1.5626628888373613 1.690920089104839 -1.0394757327040514
2049 2.1010704146678134 1.3864842752578062 -3.3889775056806135
2011 2.6422401269563216 1.415785724139685 -1.8390209738708632
2052 1.4037877275438349 -4.076396026997842 0.7758510338896923
2410 -3.7621247819868824 -2.5982856916509056 -1.248275702034821
2453 2.0303776818812547 -1.9831538961095878 -0.07708172292482506
2014 3.613141924892453 2.5980176957737062 -0.7736535131962127
2457 0.3748573802339142 3.7760480212250425 -1.495624364700374
2060 -3.1266599509428272 0.9367392545254695 0.5931725301095636
2057 -1.1135352069463142 4.621911146139736 0.9520220221793003
2461 0.21283683057343722 -0.13675894024308757 -1.7052843338576533
1623 -0.7339554595320726 -2.6761076474207863 -0.2625098889643224
1624 -2.815561332038447 -2.855808488336874 -2.4552218340015597
2022 0.47886480419647126 -1.0727270097383095 2.0350944984075126
2025 2.166004257062931 1.209255495217483 -0.5041764831929106
1628 -0.2776584041498147 -0.4626653382068438 -1.1055776897052016
1991 1.716820390452355 0.08517238357101097 -0.6876154426073307
1632 2.7745706074224334 -3.289050710276558 -0.6950458371508457
2030 4.126800153413476 7.65351441711959 -4.11376406213786
2034 -1.7126007068790339 2.3386248405850845 0.9302602138503372
1995 -2.3367838942128154 1.5591231307207956 -1.7363623445187093
1636 -0.9382082955701851 -1.9078236783102742 1.865546317003416
1639 -1.6063638602613293 -3.2433877195466647 -3.3911257031011623
2039 0.10129384349496835 2.9290748899150456 -0.602174991051635
2038 -3.457228499961049 2.280562885764189 -2.7580893765053656
2080 3.6041249447766845 -0.20516956162179611 -0.9567303760835844
2041 -4.3293387548816815 -0.17894650490369796 -1.9929559460966364
1643 -0.43191381274804375 0.08260858947032945 -3.549672287972214
1644 -1.428655399128143 1.6117844402908539 2.0921249749976942
1647 3.2896995366836097 -0.6896957076467379 2.0800939316709295
2045 -3.7774334790345674 2.5512815073411437 -1.8307848141886218
1648 2.3327172380681738 -1.5811990774156197 2.0723542817571228
2046 -0.38862757458628516 3.967895111588636 -0.16593138726960713
1651 0.833440535833376 -1.6091257823037102 2.4797638288933204
2451 -0.01649634584780085 1.8372912593759414 -2.135649573149856
2050 3.994589500950111 2.3088265633912375 0.05570533560975543
2454 2.216208289375718 3.273325495611209 0.19001464681729663
2055 3.5080950115263554 0.15066337419911408 3.2293149867265787
2493 -3.298831237213106 -2.590615143764962 1.5006852944811804
2056 2.0353075139234895 0.27349510329492266 -2.470636792776943
2097 0.0919774343279226 2.3424545517433697 -0.12880461974767543
2054 1.4463070169274883 3.2221725999170934 0.916700365667599
1659 3.0073040817014975 -2.2719487718303695 -1.017862810338606
1660 -0.8907150730144012 -0.9746558439013275 -1.0183967196928119
1663 3.28586059687724 1.367610903058652 -1.3323818655943969
2062 -1.5426878119178433 4.694801606682061 -0.9004891513872231
1664 -4.1758813136156565 -2.506505648789244 -0.40005488950630785
1627 3.1188104835257198 -1.699398716053019 2.1349925842812185
2065 1.9721927415794362 -3.7318767802551487 -2.2421228951180923
1667 0.3727484060174189 1.2277721072793135 1.2249972667999791
2066 -0.8447005899062994 1.9527610624804592 -7.323458468759694
1668 -0.3335827523783107 -3.9578500124059444 -0.3290305066717403
1631 -2.4297682989071516 -1.4126038811762762 -1.239198867111957
2069 2.1905142670406827 1.7426501374753072 -2.566119790444896
1671 4.228676300410243 1.7240323458777997 1.374485121402143
2070 -0.35096715243934534 0.8881785326278676 -0.5763059369755008
1672 3.5026412638637123 0.03131226685054445 2.5997112965262272
2073 3.4133862700026096 0.4900413709105517 0.5822256245122913
1635 -0.41835131871524606 -1.389659464718716 0.3021095539734359
2074 3.087810307300181 -1.2072010801298563 2.7575319006700845
1675 1.6834326693284885 0.548070051782587 1.3303749454713067
1676 1.584380428502986 2.5552590704098073 -1.1863376821902554
2077 0.8141702307374886 -2.028835536359824 1.7108618669683244
1679 -0.5375524735488759 0.09957969724719799 2.1182329753801454
2078 0.5602258774586438 -0.8113865484263802 -1.427382176490089
2120 0.05320710040747369 -4.457708504230399 -1.1735030656835532
2042 0.9386312830531451 1.0842163172687662 -1.4121783528179452
2082 1.195335907133836 -2.2708058472238046 2.550999314247787
1683 0.43322780172989106 -0.13343681884445274 -3.6378071097638403
1684 -3.3153497113758275 -2.5849603868090014 0.5957961009293228
2081 2.339177212264385 -1.0471104662420132 0.16115555906403325
1687 0.8251176815788969 0.9733102589577058 4.136450317025489
2085 0.30213314298428046 0.6450434666814981 2.043095585005038
1688 2.0380820685123955 -0.8478543696106712 0.4256784307368504
2086 -0.9001456390903545 -0.04985108339788322 0.7747494850788926
2051 0.16656996157565304 0.576541031283484 3.2478937392064697
1691 1.0099474932877475 3.5428498052431734 1.6115367274004202
2090 -1.283774265390066 1.0737675060214522 -2.2198108010189506
1655 -1.4414167408857252 -0.12510101812624638 -1.6648596765368968
1692 -1.1500073668261537 -0.3426184486400824 -0.09418527802019186
1695 -0.020237810961776556 3.75221755146236 1.102587683916504
2096 -3.6065999139474463 -0.37220449607194284 -3.781849373321196
2137 1.7966735348079512 1.1040009971352611 0.4085643964295487
1696 1.6823037593544097 2.9966180017807873 -0.010636787869131584
1699 -2.0138987625664524 -0.5722459794612113 -0.051439819673720424
2099 -3.038588773238429 2.8076027579025733 1.5401849843725162
2098 2.9076734880798916 -0.9265643747159733 2.3008754108307765
1700 -5.83900563791565 -0.0837641371427794 -4.216441995561561
1703 0.7348599013894197 -0.9544864672502955 0.5046166437419631
2101 1.6413450411835175 0.2476825699345141 -1.454876911159235
1704 -1.7324501472689158 1.9018641299785977 0.5059035987058756
2102 1.0372462316871105 2.100550726336196 3.84988207889387
2105 -2.629895284399705 -2.0034978871779443 -0.8159437321143136
2106 -2.0749847591437445 -2.9466712429938338 0.3555807075699446
1707 -6.214868326631156 3.7392389527250347 2.7052068119219053
1708 -1.1078642306308204 -1.6472838497339142 1.7361618700600252
2109 -4.649944109302986 -1.4246131951533818 -1.0113822738600724
1711 2.6959602310786095 -3.5410067317029377 2.9146539964040805
1712 -1.0653333263977605 0.6163376918171988 -0.7652488912164668
2110 1.3133408461401812 1.2097957512049062 -0.33555686114530686
2113 4.346669761422763 -6.427762901778296 -2.19974909312121
2114 -0.6626277728367478 -1.454119259150818 0.41199392272657215
1715 -1.0528934578214921 -0.536470614829454 -1.6164685799662049
1716 -0.03647021116090846 -1.5273524076703437 -1.0509728501582216
2117 -1.8406479850879893 0.09180301752321328 -2.584103600895023
1719 -3.7619829076925164 -1.3756996151654177 -1.4310832966250195
2118 2.214384832029369 -0.9024682904227059 -0.17941017233882203
1720 -0.1980276247053442 1.9255222172456832 0.6010742490344708
2124 1.1557171452292851 -4.856880876547789 1.4593390357266212
1723 -4.3678541395572745 0.8928604919359199 0.352014359446366
1724 -1.4471183461476502 -0.5326998913114469 1.3303741456298839
2087 0.9857530295938411 -1.7419032610933267 1.5661334944698762
2125 0.6518959494766197 1.277625354631795 0.8887971896739824
1728 2.3675813187405677 2.595130692566852 1.2010677746514593
2128 6.952630471477814 -1.989461646224594 0.15997401809898676
2129 0.980704347204707 -1.3208839286383467 -4.924373069720422
2089 -2.5831225175614114 1.7734974166719497 0.02057291113741451
2132 -4.40323859595146 3.219229435521443 2.4179355509460754
1732 0.22154616027450058 -1.9700635728759468 1.9612312029205445
2093 -0.9246725548075128 -2.762856939409663 -2.577814627448487
1735 -2.0371350230085445 1.1913326770237773 0.05466196233659546
2094 1.1944145522207852 1.956445632264679 -4.160195236819124
1736 -2.9525173191539005 0.3024625230731701 0.35506506573531965
1739 -0.540930088802936 -1.2124195461236056 -0.47768178785795157
2138 0.0656062044208404 1.0591920774493424 0.13256003089569063
2143 0.23290349300940863 -0.7821467808169227 4.54776195300384
1740 -2.7936001217502575 -4.099940214970611 -1.657355254712888
1743 -3.035563323044024 0.6372228861287309 2.861462252318118
2141 -0.3229389630679751 -0.8338390688011141 0.6582198000868429
2142 -5.457181238245862 -0.16533852813822164 -0.4306232761505039
1744 0.7222158630254139 -2.5876540932148693 -1.6181610940847724
2145 1.6313935394058923 0.22488575786681236 -0.16540636063930403
1747 1.5475711721070116 4.329160328012584 1.0037693669673942
2146 1.024951300212914 -1.4245670154596877 0.9969276957484131
1748 -0.5260020697001154 4.5469452441200024 -0.17390919310948005
2149 -2.1655479918920193 0.8202348554909151 4.163057579059666
1751 -3.1145673953612185 -1.29376476720871 1.6828104842550151
1752 -4.593685531503052 -1.161462248675959 1.192670779688804
2150 -1.2433790216478269 -0.007421395602534902 -0.1995050447542124
2153 -0.48122735796303007 2.505909055347212 3.361571873510076
1755 -1.517660544185576 2.1830876180797087 0.8581650454701979
2154 -2.1074254612239636 2.6673394947608853 2.4970615112999806
1756 -0.08368926554898548 -0.4793751016760578 1.6894181514961055
2157 0.4337063287248589 3.2753582266663894 -1.3074947163315846
1759 -1.9542116934428506 -0.30713220726575535 3.4556407580127586
2158 2.265287695783249 2.729269300023369 -5.375876551479739
1760 0.40605405390285665 4.6887687211262 1.1632571944892454
2121 2.334667107599172 3.7547494230304848 -3.172887459926017
1763 0.7367485739069214 3.096024679615078 -1.1505612009055666
2522 0.8636549372792488 1.23499088099177 -3.0507840952822276
1764 -1.2138691243343054 -0.3032793993926965 0.49179742844684066
2164 -0.9470223549996182 1.840110102337174 0.13223121437575194
2127 1.4117704043333694 0.30169436046356773 0.23054408782920247
2525 -2.5398950365398947 -0.11002019131040854 -5.899976797371256
2565 1.2702941819437743 1.457761838649415 -2.541322456727197
2526 -1.4051807950970545 2.6900381463500085 5.87540911662854
2126 1.4589861572775467 1.0435266685887763 -1.9449249754010935
2168 2.252483463415241 1.9482217536773516 0.7561760908356523
2131 0.47228591389677294 0.39698664874831563 -0.08892170944686258
2169 -0.29345999441536413 -0.789908367005769 -0.047644644771704985
2530 2.3021814712154227 1.5176824852857909 1.6134426226440557
2130 -0.7893474268483214 3.930469860348139 1.225083891404763
2173 1.1752593102316486 -3.2128614226326713 2.725088814727007
2133 -1.51034373187196 -2.828981755873667 -2.2679351157847205
2135 0.8383995978258912 -0.3427745118792982 0.7598105318635939
2134 -0.302283859525435 0.2493919671529123 0.2667926100710575
2136 -0.0671797637088106 -0.6315178290255131 1.4129516398882744
2177 0.48394640806266515 0.0027917258556678674 2.4914906323802906
1776 2.190060487631541 -1.5322256735239252 -0.7594238936711201
1780 1.6139212402396894 -1.4824809265430066 -2.8950098835765137
2538 0.2584672991399879 1.0876446022078663 -1.9272850188379549
2181 0.6575011433551945 2.128001759793048 -0.7075429309740274
2184 0.39551219282644806 0.9093375639950155 -7.075694000671583
1784 -1.9627796887656452 1.100637303284842 4.591009847251213
2185 -1.534207941118852 2.1480786833805796 2.4361134963136126
1787 -3.202559198265658 -4.14610461582757 -1.2108341875613444
2186 1.0502526250688116 0.9834760889682731 -2.5806483081938136
1788 -0.1620753908030747 1.745060873072319 -0.8361922473346494
2585 -1.2646681754746867 -3.9100160316313373 1.3726034718016873
2189 -1.8061214796476945 0.8925149310412359 2.7788573281976148
1791 -2.0376225634796583 -2.4092908476630597 -0.5822040345728435
2191 -2.319111944149547 -1.597336674837648 -1.75531470230779
1828 -0.6854863460415497 -4.654517907678538 -0.5382237098562815
2190 -2.357763262573222 2.608993475932379 1.9653231182348423
1832 2.1780978558342965 1.4791613858627695 0.08436492566697855
1792 0.2591865362851822 4.017872502592557 -1.055360302609516
2155 5.815120520677452 1.4816998979335014 -1.330492280210952
2193 0.0151778311614651 2.587855814695007 -0.45353359126881915
2196 -2.122993222049463 0.8469636937160796 1.5914439965800795
2194 -1.2917039278442595 -1.5872807231810688 -0.7435974664030938
1796 0.22476763399607225 -2.326777507140957 -4.701091876969148
2197 -1.4127755220059917 0.09377688742211586 2.7139271910698906
2199 1.0016488571440079 -2.6979837493691416 -4.4904229720315305
1799 -3.2349192871106687 -1.6090557712596971 2.0837437873709166
2122 -2.7432515301424645 1.540499367176278 1.2413238243543572
1800 0.6490972779176283 2.0023281708906238 -4.84071229710976
2161 -0.1411036696154669 -0.1714395786525407 0.44189004903852996
1840 1.9546723110635622 -2.940677962976888 -3.132467653269259
2561 1.6508273819542496 -0.5648475672270354 0.8807758820918158
2601 0.837993803414054 3.019486998411118 -1.0644519069330194
2163 4.413360710496089 3.513179190820742 -5.651118399398584
2562 0.9483882201599422 2.738414014003906 1.218374105610114
2204 -0.7190595652914514 -1.9392554177882564 3.8042262951534673
2167 -0.2902534693832547 0.8793253358389146 1.0519185720469135
2605 -1.0583718626393837 -0.11832099863827891 0.9427048795278411
2566 1.4526199537534874 -0.3607362852751347 1.061307524882499
2208 -1.0018759195420281 2.6905787726089483 -0.39201877102852906
2569 3.1615652454589287 -0.9868070326136169 -1.6021952574536689
2609 1.015686135015349 0.18068026480167676 0.5693522904182831
2171 -1.687010554767073 0.18264045339891474 -0.8015025519367818
2570 -1.696467048011278 3.5839812594385223 -0.5547368466897095
2172 2.9304383953566244 0.32888546268483637 -1.9249332138491517
2212 -1.1200298219332192 0.13323533958384073 3.138858195641076
2573 -0.7111505061917511 2.3104274409951775 -0.6623426992161497
2175 -1.2806488680748498 -0.13806155538308015 0.6198247472138544
2613 -2.46241488849901 -0.30635709672820416 -0.4335562583891757
2174 -0.3090749528185295 -0.5731906696197528 0.8775924165188917
2574 3.656435150741243 -5.617774847902047 -2.9831800986804557
2216 2.466340450802883 -1.944323778198624 0.02655462891133903
2176 0.4234358541287213 0.788162961743575 0.6652607128026765
2617 -1.8749406550947967 -4.697866514786599 0.19944314827885926
2179 2.87366751466327 -0.7602233983237183 -4.048032312349518
2578 -2.6478478616871066 1.2178165169092199 1.1188608493643601
2180 0.6969609057606424 -0.8913060581727925 -2.3261858087377703
2220 -2.9668515076919797 1.2265097628551433 1.175197251238485
2581 1.9856209902806516 -1.9789740611445144 0.9932060191117724
2183 -1.1880468982456087 1.947920852247338 2.010452040899937
2621 -5.211397338850289 -3.5168318755764476 1.2033754603752034
2182 2.0446267030478866 -0.9979032550571252 -0.7601884579709106
2582 -0.23989857600757544 -0.9926573379012916 0.4293352839862114
2224 3.466911615902715 1.311067002639772 4.749942024138142
2625 2.538588028663584 2.849115398589073 -0.9465490567791781
2187 0.4345191173484496 2.4769018240545275 -2.5496792856894865
2586 -0.3288907651278052 -3.374933882418911 -2.2506560671830904
2228 1.294544707081522 2.699339780402305 -2.0763250379280005
2229 4.466971278447214 1.4600336389305155 1.1629981868350419
2629 3.6010720618150933 -0.6964692887310149 -0.4098688168087141
2195 -1.9246987084086926 -0.9665021943789991 2.073701961401884
2232 3.3487357366534853 -2.8768191614566994 -1.4978389499773017
2590 -0.7287133696992547 1.2959322498576442 -1.5700098074880584
2633 -4.051030202461559 -1.5122231461530127 -4.101657970202226
2233 -0.16966598627827084 2.933483665736935 1.487654554163614
2236 -4.759096035617644 -0.4463388002385773 -2.582776213384773
2237 -4.038570724493311 -0.40293559687150077 -0.010636698042143058
2637 1.0966836077315174 -1.1099582460776842 3.7608291653355637
2198 -2.3240292143649235 -0.5361086278513727 -2.198847575420275
2598 2.1143985535321113 -1.2583307223178213 3.8900664072593765
2240 -1.5877716761941059 -1.5335810503053897 -2.0272447109938603
2203 4.240661229686605 -7.374047539721324 1.079654371775743
2602 2.5526316463834093 -0.03249594309215442 -3.478796461615816
2641 -3.754691385199265 0.30898946615633216 0.03039774425434648
2244 -0.7085796997670991 -2.4217747102085125 3.437005121466539
2207 -1.9624566455224342 -4.038680909671162 -1.4718088582615223
2645 1.3672554481440957 -6.739336537601988 2.7344231103886782
2248 2.0845371044795336 -0.6318557113810738 -4.492706041873541
2606 -4.642732571795193 -1.2936833262364136 -1.753775690632786
2649 -0.899974045991727 3.68189841158187 0.17023126805862537
2211 -0.6035992706191851 3.377614017545812 0.9933656256199271
2610 -2.7700151956080172 0.6830402981618934 0.2300696690175746
2252 2.552385638304182 0.9619911909045159 2.224181542710483
2215 3.137917549957263 -2.35222019674944 -0.09042451952278902
2653 1.3214996446757117 -0.6955613774543368 -3.1561034096758895
2256 -0.9443897791543876 -2.5221576059096877 2.1360795890520823
2614 1.5183911995471 -0.7360343928339987 0.7258250957060717
2219 2.370074540326323 -0.45991211935584425 2.623898805634209
2618 0.02016783761212835 -1.1131465049606069 -1.2564957590278751
2657 1.863740910964533 -2.3029233202274644 3.5347260942184064
2260 1.9538612826073338 2.293914212841591 -0.41127473998515895
2661 -3.262117098414995 -2.1182475202322517 -1.6978068855711808
2223 4.2238343287446485 6.678748203595424 0.18835227134773228
2264 -1.1121838581793253 4.803191102170115 -2.33460093082754
2622 -3.835461297908929 -2.28878412801672 1.656773274630479
2665 -1.2658439914217188 -0.24906388911515295 -1.0556760399732517
2626 0.4632618904730703 -1.7655001398718797 0.7701894247459903
2227 -2.7471146128716066 0.3269758997589261 0.20906883630226625
2268 3.088628285508619 0.017674254999182643 1.356790516450738
2669 -2.337633679740989 2.220048521314002 0.47942450539610415
2231 -0.6519052569743582 -3.080661211416478 -0.4552942640754292
2630 -0.00553784947565135 2.008852869241604 -0.47720621196576857
2272 -1.6561862487844807 -3.3816784524466175 -2.8208816121602327
2673 0.7863262801826841 -1.7617220482221423 3.0795353874683475
2634 -0.22911697682516063 2.2393826774226464 -3.606504159235417
2235 -1.4303209546011098 -1.782730323326925 -0.0189106868928413
2276 -1.3844477606388128 4.020619914638531 -0.17981253149983248
2239 1.785012243106453 0.39929148490567756 -2.0229378563759357
2677 -0.3239885768441338 3.1165936980737543 1.2345796916349454
2638 0.35919274323735767 -3.3317667488999714 1.694794458466038
2280 9.809955772150685e-05 -1.054129423419979 -0.8565421754402295
2243 -0.23773293568013382 -4.008276564762656 -1.7933794212621894
2642 1.5194975737102743 0.737455366698214 -0.8696364233210293
2283 3.3717313200359835 -1.0412148960367849 1.6039433347725223
2284 -0.6952419859613274 -0.3578480070335037 -4.50365092630049
2685 2.021807043573982 1.5678788586348147 -1.648113927387172
2247 2.832717113581282 1.5522963541410002 -1.3924363421255548
2288 2.413455049150614 2.5489649564198977 -0.032217776398467964
2646 -3.124587450716983 0.3826147345489871 1.6096971725958849
2650 -0.23604461107822666 2.9349020674809387 2.916037205262431
2689 0.5970047762722916 -2.614538046543516 -4.7546206693050195
2251 1.3124037089313652 0.41030766755455367 -1.0322997423707494
2255 -1.7382066639917628 0.9497098716116391 -1.644656733995364
2693 2.89033353773103 3.4125942256642134 -0.032079126886698305
2654 -1.3846894155155074 -0.7283774222919102 -2.245294024864657
2697 0.28742932327453935 -3.638856113125393 -0.637835328098167
2658 -1.7946855398450186 -5.425903634092222 0.5331145126612148
2701 -0.6591113608323862 -1.077372240078165 2.3954763555583005
2662 -0.07835576656979058 5.533107811200266 0.7575845254991039
2705 1.0002970448198423 0.592028370697388 -1.0207977848130454
2267 -2.0830695145973372 -5.899205662804412 -1.609424571300084
2666 -7.165617408442618 2.2879137168814543 -2.9955463487933267
2308 4.278748794261186 -2.0676813076782072 0.5757651671307902
2709 4.67372467416252 -3.6179390273612437 2.4553229608547213
2312 3.3854177852361493 3.907017192970133 -1.5109749620622879
2670 -2.9725864400188606 1.837538099959988 2.3488476853441522
2713 1.2631963167958165 2.2710110488249335 0.22860632011048704
2275 -0.24491514049588073 -1.0726081579839386 3.4497854958358887
2674 -1.7314956147545475 0.14905133489908012 3.2270171673930377
2316 -3.8102827537027224 -6.021835549868494 3.4031032700744435
2717 -0.22442913607222914 -1.675559640162348 -3.2197357141381517
2279 2.9528531756968537 -2.501100482105219 0.2034197310077949
2320 0.2771218138015278 -2.2439565642300967 1.0309500202715596
2678 -2.5678944411122604 -0.08864424842220324 1.7934126036593259
2681 1.5588927690780356 -0.6868703657336562 1.3006221132722449
2682 -0.6779793244595197 0.6869609438601286 -1.5700932652333235
2722 5.969094639782391 1.6040867952945759 -0.5411524065245424
2721 4.4458863747670465 -0.741513600253016 -1.8519309324973334
2287 2.1206260875475387 1.157466681306474 -0.6958131659211751
2725 0.47864557739544306 3.882221473409488 1.0740618011724876
2328 2.944168964000513 4.048051173965082 0.25751232445296396
2686 -0.6460688858919165 -5.221374510572159 -5.556886293387597
2726 -2.7445337303743886 -4.766749769372899 -0.862283815896723
2729 -1.3880211711538664 -0.29305439284665047 -0.3726975214252675
2730 1.1112540534808593 4.055387629412403 1.5695486134085996
2690 2.0235272590120266 1.5253528602367494 -2.5083047535832286
2733 -1.4178380081754993 0.9677724504996844 1.5583787716261448
2734 4.601390529530589 -3.8314422705877758 3.189402880149564
2694 -2.319368104989338 1.8154123136969855 -1.5183206017463264
2738 -1.9009302665790644 0.4303177816338665 2.041880781639937
2737 -2.0634270499404237 4.512831359902539 1.0094993351862342
2698 -0.11080783697612644 -4.234683779057396 0.359119761404818
2741 0.5077008419638848 -1.023424043203848 2.8554779901652463
2742 -0.5110315747741981 -0.3965059085773802 0.4374394632058246
2702 1.2560925026736935 4.1388297100074585 -2.1750102160491664
2745 2.034312891060578 -2.0196287743162196 2.014882166744766
2746 -1.0368277340563248 -1.2489706482627811 0.879982136119326
2706 0.6447024985103192 1.1938242279869704 5.923617914280604
2749 -0.49203631230834804 2.024028262557893 0.4739052351994177
2750 -0.42279725141867963 1.6813483018251172 0.10169629680109529
2710 1.2873899553709134 -0.8202572275479616 2.1323128912380507
2753 -4.325023991142772 0.5966317862906404 1.1411828364884395
2315 -1.620330263746732 -1.6123180025854154 5.3115403068440115
2754 2.4466295215700367 0.7072828425896075 0.507959556417785
2714 1.149485863879188 -0.29486530251127263 1.6540951284021421
2319 5.2787299774141525 -1.6060633056924434 -2.8038596580067097
2757 -1.7542670798906446 -0.9701775733491609 -1.3949131818161598
2360 -1.410586862249885 -1.4972499900861191 0.18952471481671757
2718 2.307471345094769 -3.5499113940554743 1.221880828952742
2758 2.2490330349117245 -0.2551197075876389 2.0825226492623408
2762 0.5776646051045933 -2.510856338296984 2.3274415618813475
2765 -0.34659414562521795 -1.5602910153399525 -2.886374298041869
2766 -4.459620217929021 0.2358652953124988 2.1802960484424445
2769 1.1052721984260288 1.1002388776326806 -4.430575072521547
2770 3.0533347407506515 0.7562100953433336 2.3388038772540902
2773 -1.9919828813567944 -0.4202087600405543 -2.100944561998566
2774 -0.10155674696603452 3.1171223720481485 0.8836992169449718
2777 0.7774607056550014 0.9955328153966984 -1.54065971322365
2778 1.4945066557303837 -1.8399822793290461 -1.2954740189126057
2781 -0.7489201420308603 0.2998125442835267 4.021375284248318
2782 -0.32636512197987155 -3.0203079189106976 1.6477209465193858
2785 0.012374067213986789 -2.1904476502790975 0.9272965305724965
2786 -0.9581621662802057 0.5388860928161624 1.0440648169513966
2789 -2.3775999080972245 -5.28278756288231 -0.23896445164372515
2790 -1.6422468894133446 -0.007874028888466153 -2.7976336539518685
2793 -1.5425421047103485 -2.1747768256416307 -2.294679299041236
2794 -0.5935542335661089 1.3113562147677793 0.2474359201656286
2797 -2.4937663536821284 -1.9424503129802089 4.766866223243472
2798 -1.7613646896475115 -4.761165584796391 -0.8434077131939562
2761 3.6328309628379416 -2.2931178695767187 3.065834253498406
2004 0.2110102254118845 2.4684628880617177 4.306454284880749
2001 1.5993739076261473 1.5363943131030098 4.081412045861399
2367 -0.6735734863417748 1.1076875550466476 -1.8206433834287405
2006 -3.174916228179968 -0.44010550089723616 -2.387243921604102
2366 2.146857566845921 -0.7196549990328656 1.6695234943838515
2008 -4.541820602853595 1.6554171719817157 -4.509318732574832
2409 1.6931140876830506 3.585196812070667 -0.8186628259960621
2413 0.7104620168428193 -2.5359575049294416 -0.9807948509758733
2414 1.3182750093207554 1.7501771544231066 0.03278910792327596
2417 0.992201642835372 0.2527979691521925 2.7034043560976952
2418 -1.0595091823385887 -1.1292497504170909 -0.19357911361550895
2421 2.418847624270421 1.5280459167091744 1.8125479378200262
2422 -0.6542662388124718 -0.7446791770447359 -1.8298630678322487
2386 -1.4742007114542848 2.8343390921806915 -3.2857059482027653
2425 1.910683159744829 2.6457412773999898 -3.0740873331072236
2391 -5.088704221385795 3.649733304052222 -2.8519086700988976
1992 -1.3126007188761983 -0.6303636402791146 0.7717438311291417
2395 -1.2701124662258363 -1.9323296131267365 -1.5535870644972976
2394 -2.2847609985703796 -2.4783813116104985 0.01772644203803231
2437 -0.5989083009856674 3.3976627941736055 1.7542855005174869
2401 3.7266454599094736 1.7323146089842074 2.751305172075308
2040 -0.5547655536949611 0.7275162668410332 -0.08500962977819528
2845 -0.7068064927429465 -2.4713102667257862 5.285895773365217
2441 -0.26629710436334464 -0.7212142155729911 -1.0917474397816747
2402 0.031608954840996295 1.8979386805777008 4.578767008819368
2407 4.047195686191382 -0.5465069430777446 -2.486783270504507
2807 -4.015862108161313 0.2443128038737639 1.6055136193560073
2447 1.2647844372366366 -1.9507435264271558 1.1841575763309622
2406 3.3865752990458895 0.1207307555738463 -1.4197303386427078
2448 1.1149968885867878 -4.0924157544005935 -1.2202373164484883
2849 -5.080142388054726 -0.5023941015889484 -0.42128358465570703
2446 3.63230018576662 -3.481147406185795 -0.8988552594332867
2449 -0.06227391797116706 0.176908663237401 -2.962035032886038
2852 -1.3884305722167423 -4.4389168725955646 1.6734051719227827
2450 -2.014977769533664 1.2501927344503538 -5.812517942139791
2452 0.6046181609014482 1.849516685778151 1.9764409396594733
3253 -0.576054949903563 3.823435412215285 0.5788724293662755
2815 0.09091542441815151 0.6533954945381955 0.3414204674384729
2853 0.11619446988674162 -1.3693522548197068 3.8724324407614397
2855 -4.093195756225742 -2.334401325185646 -0.9494219350721783
2856 -2.545814885114901 0.44128146762205156 -0.6803251482267123
2859 1.796574888679112 1.0767411219104266 -2.931754682169217
2456 4.329363756217196 -2.7587802629076608 -0.0011174557906051656
2858 -2.1998469522236337 1.6039825659209348 -0.09935776579508117
2857 0.5469282164778885 1.4390574108339165 2.8983204173747237
2860 0.20066202375113054 -1.860863600500998 -0.7255935754449662
2460 3.989483707185945 1.6077207463499157 0.4735206613410716
2861 -2.6565075472721214 3.425759029451231 -2.1577928595083735
2462 -1.7492607187475422 -2.5572728693427846 -3.6634434415235795
2501 1.8624382220698663 -0.98631355566991 0.11982016689561548
2458 -1.9095515095806994 -0.25560241956292723 1.5356666941939088
2862 -2.754842512282129 0.994855669327361 1.5925082197468603
2464 1.9780736775783112 0.9316053773615106 -2.92963314822917
2027 -0.4182418961716605 1.714571893633321 -2.5009330043405025
2865 -2.885770163986598 3.452550773682757 0.5954071183272216
2028 3.567658547960779 0.026748024898463632 2.5988098061320093
2469 -3.5321834100105964 -1.011983597842915 1.1263778775992328
2029 1.1308103765834903 -2.947730299620042 3.2780280379016826
2431 0.5542666501512441 2.112796178000657 0.2458661022522676
2033 -1.2659362460209131 -3.5542795501005267 2.6947427949170852
2390 -1.4178330467283062 -0.9433123360403948 0.8843478393225751
2032 -0.09924680948823741 -1.8035159149969722 -0.4285601629025336
2435 -0.9593539414780186 0.1803980499853333 2.1700678702428737
2434 3.4135658005740543 -4.842121564204789 1.7567218887927456
2036 2.927575083373365 0.11447606662799599 0.36417907628424806
2477 -2.2859460882339944 -3.9295084527953934 -2.889481348978082
2877 0.6671183567663765 1.9545680745694325 1.3010472096882637
2076 -3.570635179295083 -0.5555266299295257 -1.166671387360071
2841 0.3021189988572153 3.656492170564901 4.264905513330666
2444 -1.0026211736117299 -4.478456584672094 -1.4777677379496637
2480 0.30958489629357544 -2.1222542146095447 1.6342463805153904
2438 1.4441886642218822 0.3667309735328538 1.4137314909406118
2842 -0.2779772830561776 0.003917960612849 -3.4301468970793683
2445 1.567979780246189 -3.44334256571263 -0.7548239825695942
2043 -1.815084974003424 1.8937465370261326 3.952829159864144
2047 -6.51735313511534 0.2563812695629877 2.3451078389490574
2846 1.440181932020863 -1.6726664752422526 0.8421135245886682
2851 -2.3094208725470526 0.27217820870892445 -2.0767521046469093
2889 -0.7026009828479525 -1.7785504259600105 0.14742267115810842
2492 -1.757612907878927 1.3451708173044201 2.0621784314344955
2850 -3.7685616008974145 -4.744510077499096 0.8338013875522426
2495 -1.4937522047540048 -1.3029453799683217 -1.116474030198585
2455 -1.2687438758371072 1.0388567525440424 0.8333648041996785
2854 -5.826615329551701 -0.16064043214463866 -3.3256694096930906
2896 1.129227961796877 -2.8075927988316502 -1.5215951030135884
2459 0.2426771457167717 1.799206152869558 -1.3382585392959985
2059 1.3538818532106283 -0.18991587492225312 -0.6035115722652432
2897 0.4625891326955248 -1.1528277020637308 -3.277846877473238
2900 -2.6658929503691007 -1.303387801605935 -2.4720104166030232
2058 -2.2779906522855513 0.8822726980241563 3.0043656484166243
2061 -1.6416864347258924 3.337265967246749 1.4899347135222627
2901 -0.5665169941212116 2.4345543562012053 0.7234216207046927
2064 0.7827551943741257 0.9170679986946104 -0.2868917205273212
2026 2.0012402211535245 -1.2033904242897668 -4.589851715166793
2426 -0.5470536035040532 -0.3372873596581988 -1.9079333946792711
2465 -1.2403801308853926 -0.589344367200297 0.2746557331158311
2068 0.5505240091160881 -0.6651317021649945 -1.3347576534613852
2031 -5.194827466775619 1.989368506476654 3.0857377083689017
2071 2.209022745914912 0.4233253300850381 0.9355913680803014
2072 2.4760680299111186 1.637133478011554 1.2823922048673753
2035 -3.1559399979467115 -5.321160358663378 2.693108435908936
2474 -1.3522984552350856 0.9469645902638387 1.7451899699260767
2075 3.0724544315276545 -2.740881296157293 1.344497774309055
2479 1.0507482307798977 1.9484116142518688 1.767130049200458
2079 2.839162640544229 3.597446425716629 3.350805844186818
2918 0.15063416479759537 0.3621961954775939 0.6872070758797715
2520 -4.614807343256863 1.342758624582728 -3.1214998523171484
2478 0.4944621193657119 -1.430759301861363 -5.109077466597927
2442 -0.9412425978946944 -1.3287307926982412 -0.6340120656559008
2083 -0.23365372649545427 0.5821070218314811 2.4351863324920777
2488 2.8995289000641646 -0.8727932821211558 -1.0547512205915572
2484 1.7723000154721078 0.8654676221491127 6.0210070798817386
2485 -0.3207816578867288 1.2986517718765536 3.352296330171297
2885 -0.1450852552376253 2.5354581340790707 -3.715220960033405
2886 -1.23793903392865 2.6095262675845454 -2.167040354090596
2887 0.23379449568944263 3.318752081360745 -1.0169980233158111
2890 -1.6006761536420377 -1.5347073457686737 0.18013532586545103
2489 -1.6523177313164419 1.8162075602808012 -0.5187944390264172
2491 4.390996997295315 -0.3333510525454989 1.5008408060874432
2891 -0.11293390111261213 -3.714346440262659 -3.1420637185913907
2092 -1.5715639612211367 -1.1829943751728342 -0.36097277298845454
2095 0.15789829991227838 1.3500863079023804 0.7851717760723513
2933 1.505471882399743 1.0423315521880918 -0.40246553948089236
2496 -3.212973924532695 0.4664128769241032 0.5981749248757192
2497 -2.8666987142224873 -2.097789833653424 6.605346288044895
2536 2.342542032310388 0.5120751666714094 1.211504424061054
2498 -0.8620643907054215 -1.150983087572395 1.0011193697936367
2500 1.0342587882522922 -0.8010134386912319 2.0567016868996544
2499 -2.7252522707722604 4.038542802142427 -1.9951695368470264
2100 -1.9763567946108718 -0.21555251197556888 -2.394882680326238
2103 -2.864697181994925 0.08605087798133682 -0.34668055394843145
2063 -1.9460717251619117 -2.7367310921223105 -4.199751789493138
2104 2.176933110948628 2.208931137755171 3.718581321260987
2504 4.913503780771014 5.905201933732218 5.9706935156587235
2107 2.5075790223715044 1.5187842577882917 -1.823340661724489
2067 -1.0191450369593404 -0.6927889271025687 -2.3919964312967883
2111 0.07268788387180058 0.21099873850464204 -1.864438060065018
2112 -2.3045028428573064 0.49121380483963273 -0.5603834200775367
2115 0.01585961893782541 0.36687784217409586 -4.0440470648778835
2116 1.8989454614007977 -1.1274901295119224 -1.5300498398506475
2119 -1.7540280110304487 0.21038116290445627 -0.20904880391750266
2481 -1.4508750100613945 3.1693082099612306 -1.7303384161905868
2123 -1.4208653220271967 3.3871443154270056 -1.8874752975483047
2925 -1.2857329059461333 -2.296533970778124 0.9390104449845277
2084 -0.9745207693571071 -3.2906346683726637 2.36365685000763
2486 0.14153135630073266 -4.516974214678135 5.055656577914671
2528 0.47018267463020763 0.9619699551177953 2.1274882654042973
2088 -1.0978614660363295 -0.6047513013923645 -3.15371618517736
2928 -2.694616790992046 -0.8118433493885715 0.9800202805377709
2932 -0.660501246130893 0.10927427042430908 0.5029126878949653
2091 -0.1166165440508464 0.8455524937475424 -2.78387656835918
2533 0.7525057126144181 -2.214301635886927 -2.851254459462546
2490 -0.7279186607225163 1.2288237697359665 2.691639667535074
2534 -0.7707166008999534 -1.1199889750179397 -1.2052479577768003
2537 0.7660719568586605 -2.4662057310615255 1.7754966862889536
2494 0.6357488608506172 -3.8856843526418507 -1.623041138602346
2139 2.9674843179377137 -0.16035825576802873 3.3794293047759374
2140 -1.1747778600920937 -3.098958771645414 3.6084706982940515
2541 -1.326988470250619 -2.5777182166827224 -5.366969949319174
2144 0.8817338370952452 -3.0581853660872875 1.8754647307294194
2147 -2.44310922549245 -1.3206000954478399 -0.5488477406682783
2148 2.3991138919589274 0.3477842123362636 0.3924220367232151
2151 -2.3849748550121803 3.278985451635579 1.4974857486697304
2152 -4.828020619879318 -3.4421516040837967 1.2087173770085784
2556 3.4850894481701067 0.8538441616308031 -1.562548418192903
2553 0.07714818534493116 -0.06612184074597963 -0.0021317865880078435
2156 -1.3148790345688288 -0.5190849162401973 1.4370802067601203
2159 3.323475786259141 -3.298461237848982 -2.0152975450951334
2160 2.093959803506017 3.5804468120625756 -0.2968823348038027
2921 2.089745146333092 -2.3265970199529145 0.6611319885277254
2961 1.2168008882272185 -3.4230221435846775 -4.2911882571881605
2523 0.6022745510311808 -0.515162018518875 0.28307202963390804
2927 0.6472694828733507 1.5009962787191387 3.278077729335898
2564 -0.8759166118814102 2.828287231092038 -0.19297307858281418
2524 1.1453442409194285 -4.034590542517915 -4.300405273934411
2527 -0.3978318258656213 -1.5046307596821222 1.6073401926740865
2529 0.5717530511223027 1.9368986202477445 -0.6037601477357015
2926 -4.130037857123436 -0.8200283846917347 4.269257337758799
2929 1.2913720322086026 0.7972436127429391 -0.7159025002747347
2930 -0.05467274789535411 3.277005200142199 -1.1571416446536336
2531 -0.2902360100429193 1.9697877677454183 -2.025775364041595
2532 2.159065647999384 -1.0130999744338112 -0.5978073752873284
2935 2.6850531777420126 1.3101926814308562 -2.9708584392167126
2535 2.6492891358771886 0.995797235541615 0.44523846032771824
2937 3.571322119315533 0.8065377740047994 -1.728721287338945
2577 2.1011321119461757 0.9785283444993101 0.8623827339120909
2940 -2.541883007104916 0.06902388684089555 0.8026947146744821
2938 0.29703388980342427 1.2196068763629195 -4.071418671384145
2539 -0.7932472183406339 -0.17552292107955164 -1.1235807494318522
2941 0.09928768289221342 3.111288471049579 2.342873571151728
2943 -0.5289135414608319 -2.1493162891859194 -3.350589641241025
2543 3.0643858031716933 -3.5038842070823413 -2.948517023770726
2942 -2.060166086732468 0.21678298358616643 2.504125909201021
2542 1.196505555511992 0.3717291896826842 1.019732338813566
2945 1.324371785616736 0.03151421528268226 3.103769365452756
2946 -3.5637488974845426 -1.2887062813835768 -2.660829074212059
2547 0.9669266252116713 -1.9977785498038174 0.3612823841167513
2188 1.0055788893992386 1.750478545937699 1.2634216028848677
2589 -2.625009883605387 3.376605344214146 -1.4220735036025054
2192 -1.294111206214379 1.8647697578928009 0.6670637970324473
2993 1.1637056360196167 1.4014974006743537 -1.9653591565681574
2592 -3.169291860914399 0.1798214149314722 3.181390293044167
2593 -1.341154102552071 0.3207099750389677 -0.3532164786950048
2950 0.4176208604596365 -0.349067336958631 -3.509021754453916
2555 -0.3093034285526371 1.1551167937782816 0.498438408773479
2554 -0.28872268883024205 0.6956022704711672 0.9479810479662787
2596 -1.8227472573332708 -0.4191126206399747 0.5056749305255327
2559 -3.276252368440039 -0.6679252478740612 2.513804429311584
2557 1.3663524889249143 0.275878266557245 3.121811370985361
2597 3.0786871133098628 0.7793392578817385 -0.3794499639966414
2958 -0.33132630072904057 4.507147401089884 -5.422369498789042
2200 1.8772342964569557 -1.6216248592380638 -3.487077876169495
2563 -2.7268660995258114 1.2814784997384416 -1.139607934470974
2962 -0.25005258974597805 0.10816954875561524 -2.018370966428545
2604 0.9137884759787123 1.4618391704852614 -0.18402480219419323
2965 -0.11321025550957452 -3.640387669495382 0.9340249402921696
3005 -0.7653752269057191 -0.19924085740406622 1.0759373641297105
2567 3.095986851225188 3.49582162317368 2.0763817219984184
2568 0.44808508081765247 -2.4695054853406546 0.18564860103608297
2966 0.0062726423532672455 -0.7100543113831073 4.310844114448513
2608 -2.3189291168967334 1.5710327235361594 -1.1809791008207837
2969 -0.19293184469538494 0.1302229900550818 -0.06228723109458919
2571 -0.4328980197258144 3.6860529196002885 -4.447955570462329
2970 0.052411445636379304 -1.5178966649322703 1.2886510262461346
3009 2.319657902406021 -1.4185019370885281 -0.2085282837021823
2973 0.09920920408418447 4.69889111608143 0.19087297423708616
2612 -1.4528806488525121 3.458749762462045 -1.0865713065740419
2572 -1.2630417152345672 3.1699824940422077 5.358846448607955
3013 -2.8009569729045865 -0.1577424464434785 1.9947437202118532
2575 -2.8556531525999067 -1.4166941166624927 -0.8442671957317057
2974 -1.0676547021667773 8.105235675051059 -0.0394133475376332
2576 1.0814560084165756 2.1315621232205624 -1.47092727349073
2616 0.8707174945944864 -5.263265002975865 -1.5286335879851587
2579 0.4392000816497462 0.31484832934384177 1.9241613863190052
2977 0.47633823401224956 -1.5837594209005248 4.84961533031772
3017 -1.5760210914232322 1.5440839291361392 1.4265439582427084
2978 0.5840969263711964 0.9934156618028049 -0.7189169292545903
2583 1.8854792662509887 1.843197405651098 1.02440422172088
2981 1.4994787445016635 4.3638027562707045 0.4772697827924093
3021 -0.1674896911095228 -1.541878708431049 0.7218967238343293
2620 0.6551533778602184 -2.6739915439362614 -2.125373835363833
2580 -0.8502445223458144 2.815000953120646 1.8365578175864903
2624 3.0143904299905735 0.43558187434747403 -1.4780639612899642
2982 -0.2729551650647634 1.4729881654344892 -1.5345832801590444
2584 -0.36355678334661834 -0.9986012478734082 2.7011123721501575
3025 -1.5526793555213372 0.5764666864809616 -0.7722834107011403
2985 0.013778829533020691 -3.379645019790359 -1.1975904737176288
2986 -1.9106826154683196 1.2258274096617994 -1.2683715562294475
2587 -3.4581076007128804 -0.7791640834012806 -0.715539501385863
2628 1.6731560436894997 -0.19367081231458147 1.7727272360546367
2588 -4.3671281475469 0.7870011548654746 -0.5315547105165497
3029 -1.621179169065638 0.7783928116999435 -2.8309109111247213
2591 8.554699459310768 0.004975322259867571 1.3987184586728678
2989 1.3875520717410057 -1.3096828008365673 -1.9627105798550202
2632 0.002313054060795679 -0.9982660540962046 -2.447637057313793
2990 0.9897528750652013 1.7504815590401943 4.57450701507919
3033 -0.4124181198591475 -1.7023391945016628 0.10080460528648356
2994 -0.007326821645313721 -0.37045934520796 0.39742471504394833
2595 1.5487006694854673 0.9441681925993178 0.30122482215907503
2594 2.0517025382261016 -3.2754640970249964 0.40964138947941964
2636 1.487274089585022 0.8863308295488113 -2.934199891120835
3037 -2.0848873461516453 2.19991970647533 -1.3237544156252812
2599 -1.572765808499802 -1.4632900721508748 0.12357840168960431
2997 -4.456188925971134 -4.722007357981939 -6.148696190834271
2998 1.9858342740276613 0.5196023655990522 2.715565667799126
2640 -2.187193937930322 -0.9423623191633893 -1.168486714813549
2600 1.8034811192751945 1.4965465616187772 -2.9767853485067732
3001 -0.4420351813639233 1.8956850182873792 2.6119843861391683
2603 0.6974686705180722 -2.1940993336245644 2.152575484380132
3002 -2.2410849265624364 2.5485456569983227 1.9120726273072308
3041 1.0361129559961924 1.4962285157080744 -1.827180018047456
2644 3.883245339719713 -0.15907471562223843 -4.173064165046986
2607 4.1104437563418035 -0.6746004905211724 1.567096853064359
3045 -1.665437526574462 -3.5118712036628015 -0.22551900976383712
3006 -2.920305758373792 -0.017046764892310075 -1.8161259320858498
2648 -3.5470046879786135 1.5952941329622463 -4.526097512764156
3049 -1.6462162356075796 2.0569104353157304 -0.1479473947334149
3010 -4.049745148921325 0.678912753739955 -2.2609262320234373
2611 3.6718843285221774 0.39162101444730396 1.0988566852219255
2652 -4.50167460501179 2.0666949222833737 -0.23983389384408924
2615 -1.2027210898248544 2.579373696803644 -1.0982817855719165
3053 -2.1798623832652306 2.6802741578649067 -1.7133472252550237
3014 5.10726680136514 0.5869843611089075 -0.15665199651427264
2656 1.005330405760247 0.16128455365202243 0.5053228920270789
3057 -4.017534959341928 -0.30001802871750555 -2.1981025939470378
3018 -2.160730228267221 1.0877395314738332 0.5646479027576384
2619 1.5348609526060373 1.324770340129509 -2.127629219495591
2660 -0.28320529532078936 -0.4855893715197993 -1.5112879105787502
2623 1.6671197188880618 3.643511700479763 3.202477464070873
3061 -0.3580504238513105 -1.0615934251506969 -1.0891111910897209
3022 -2.5122459385572524 -0.36902605692915486 1.9009977740538713
2664 0.9596169870923225 1.217821819933087 -0.5642744304101607
3065 0.9074425854211495 2.3713198393639714 3.815475430992167
3026 -0.6209000586515753 -4.222700778972694 2.693607088737947
2627 -0.5756455610926566 -1.6850279439223765 1.2604934718641845
2668 0.4226023937044214 -1.0420788114724375 6.363799847255693
2631 -2.2152061566237458 2.796829631337428 -0.6544411858590552
3069 -1.3314207177605402 -1.692786953073268 0.8258007385064611
3030 2.2026460568229815 -1.3361383814274974 -1.0033314529024402
2672 -0.46223186461738364 0.16524378031577583 1.4139044975872712
3073 -3.2529510418753347 1.3381532793857664 -1.624118946592108
2635 0.840621146394562 0.5859062974196536 -2.966860203997031
3034 5.511552797400366 -4.12727404473381 -0.20037542454703341
2676 -2.522721552727463 1.2782826599406492 2.7745385871735055
2639 1.3485977931023927 1.330034689684404 -1.4611610472625833
3077 0.5360128882780915 0.9359736259931142 0.11274157113433453
3038 3.6983919616319243 -0.36148574690173374 -3.18461077922338
2680 -0.3732228954996815 2.2088684996032573 -2.468377363361013
3042 -0.2238855850465844 0.0681833804902552 -1.342323976042152
2643 0.3989990320337148 -3.337678847818462 -1.963931307814619
2684 3.3819328435864446 2.508572909123919 -3.946308142874715
2647 2.157651721569999 1.2375935570894454 4.392955823793381
3085 2.7482227087090125 -1.65538506519219 -1.267648853962279
3046 2.592189035682273 3.001788215140926 1.626073236901339
2688 -0.870270242652354 1.958390821195877 0.23844490030742307
3089 -0.5397770385353413 2.1076242628859183 0.19428874735647916
2651 -0.8374903655755934 3.9309822033296182 -3.963193092230786
3050 3.8207426253831867 5.2886102044592604 1.0923501180685191
2692 -0.45467513323265035 0.4169377243043006 -2.8860502333038056
2655 -2.9789899033858553 0.44294735762809023 1.9726773313107058
3093 2.834147988777526 -1.0950744701610793 1.087610094032719
3054 0.507049064912308 1.090402426185797 -4.394578167143224
2696 -1.3576827389529615 2.544668452034244 -1.632025035860345
3097 3.792061210383697 -3.1451487523239607 3.609038156597941
3058 1.753963570861209 -0.33103297795248815 0.5597627520698346
2659 -0.29203096358180064 2.952606840630351 -1.7621685726251701
2700 -1.3109001556034836 1.5016751280874068 -1.2034650332961914
3101 1.2528871906814438 -2.7456146700776487 1.1153657441329683
2663 -4.149813355883688 -2.157893318447898 -6.310775328058257
2704 -3.0643233877805627 0.38499694517830735 -0.5124702954579503
3062 -3.6993267877387086 4.411744516846013 -2.1477194727039857
3105 6.343296174713155 -4.53688811586214 4.502315533236986
3066 -0.49058487050648764 0.6041443848970725 -0.20714133681522223
2667 0.6740354628193683 3.396769211610613 0.4849296327250681
2708 -0.9419125349187958 5.559991075093157 2.745305787659292
3109 3.081658281257125 -0.16437968754782584 1.6483965387883401
2671 1.0173129475151987 -1.4259567921096825 0.5266477205372184
2712 1.1574073970979413 -0.2570823785777817 -0.540059917291248
3070 4.12026291772195 4.205930288194801 -3.657932543450586
3113 -0.47525985896095085 -0.7118771520884266 4.057228956982653
2675 -0.3147052461500475 1.2654252494788796 0.4815824548923897
3074 -4.365683296944225 0.8304736209789324 0.9818039749688887
2716 -0.7558084726394819 1.9809052315262758 -2.9520961894972784
3117 -2.085376962312696 2.330059717070506 0.2547988088349934
2679 -0.11826892622133726 -1.9150546584366284 -0.8862153782782645
3081 -0.004196624905987789 0.5480334409959647 -0.27853934578796313
3078 1.005179197840035 -1.5574681299613098 0.17274872857532395
2720 -0.41059861959725796 -0.3097569605283506 1.8840138870732779
3121 -3.2692603562198923 0.17586969028836552 -0.46227888748199647
3082 0.6786453431475141 4.72121194988354 0.17117609777466772
2683 0.4191941552841528 -1.4721485677142159 4.394592122051474
2723 0.5628736114768728 4.369318358148643 4.913883979766299
3122 -1.6938763962053383 -0.4447477380479351 4.189004812806787
2724 3.5275349413950114 -2.3529796481897725 -0.8420200012178783
3125 -0.2639797805333588 1.9544414517833093 -0.6790315691916537
2727 -2.1243453520578264 0.2740486056888551 -3.2672661634831166
2687 0.8559329532670195 -2.940018397644015 -2.5095086438090686
3129 -1.3478159799620586 2.008046352340555 -0.20866960940470547
2728 -0.8507405937402902 -0.5874006801710842 0.28981805083512746
3126 -1.7749456771599461 1.7360283876643634 2.7633565755129195
3086 0.8655382081920128 2.8212871099592016 0.07407363933786947
2731 3.1892661369120665 0.9700560862129234 4.539225571560439
3090 3.9261016650200316 0.18521117295024145 0.8635401012423196
3130 1.2611583502368366 -1.6565243804968113 -0.5516891187726588
2691 1.8187597873478891 2.866697505084321 0.5668360775326847
2732 5.2645303746244245 1.0701419420398879 -0.012063380507679697
2695 3.756322944500967 -3.800011869744388 0.0349554834418851
2735 -3.0956393482252156 3.213327170464113 -1.2924628511616811
3133 -3.0105787120888032 -0.4940972684023622 3.4887506134812516
3094 -0.5833438834405269 -2.1107484011250817 3.2190581934489835
2736 3.1375546252833786 -0.3727671004679954 -3.4688480722730612
3134 -5.1238317323176865 0.2955076075432209 0.4575447297582949
3137 0.2340073553809587 1.493563673264582 0.0678016902742412
3098 -1.5952075441668607 2.457583873120438 2.198303752431136
2699 -1.4041991292703757 4.0942895242981265 -0.6372015477775675
2739 -3.0716162354647194 0.15437151523259332 1.9941144441412673
3138 1.1536469758700638 0.09474902658372045 1.0469838474184343
2740 -1.850743281915762 2.0709385647204974 3.9629487297315764
2703 -0.3068003109699714 -4.74655641038217 0.25295069013475746
3141 0.3661258015834206 0.2811861981051946 0.5762848176416706
2744 -1.6823438536376596 -0.1308714057722825 -1.143232301383665
3102 -2.5155816144449203 -1.0494963213026893 0.8121768512586287
3142 0.23232472047693228 -0.7417128428132215 0.14253937812519638
3145 -1.1727839997103826 3.009230127923964 0.9726002831533835
2707 -4.042058708142406 3.4761346832596898 0.5628598585508633
3106 -0.27368315023736095 -0.6286219833129528 -4.540419781705209
3146 2.2454565382751976 -1.4794586416414925 0.2343512746389115
2747 1.8696034194874602 3.4281102079685395 -3.6915430816443924
2748 -4.8872457931224025 -5.854490130974572 4.5191914909934185
2711 0.9980343576795416 -5.534632727048997 0.5042028152007498
3149 -1.10547403060962 4.420176906707014 0.9130602633877265
2751 -1.0287815499029143 -4.559068504067335 -0.9009133167234434
3110 -1.47148939227075 3.82775777635951 1.8747163000494529
2752 1.161826812576901 3.2279893836262494 0.028958646594286874
3150 4.65078245410301 -1.7928523461943073 -0.4945875777816072
3153 -2.2641732148782516 -0.12750197017930984 4.933654050721726
2715 6.035014608326029 -2.2415178413714307 -1.2543941974335566
3154 4.158006231167217 1.0078012332441248 -2.144835293069875
3114 -3.9199937942813365 -0.9406115683283942 1.0035543094350001
2756 2.88191368307216 -0.8538943231776389 2.5766086988580468
2755 -0.915771747143701 0.11944381879140782 -1.8836703887552817
2759 -0.6648385507569314 -2.4997393146853457 -0.9868246647016444
2719 0.26471369873269696 -5.504880604049368 2.5294534094913885
3157 0.054133772189117184 1.7200901172093244 -3.7174476790876847
2760 -1.3710953382423878 1.3514042482385982 1.0735526692891235
3118 -1.2528807102914044 -2.291952254098238 1.5607041702507982
3158 3.229227461436141 2.619317933513278 -3.3826399916955765
3162 1.1567841160262413 -5.001600247893139 5.379109123117009
2763 -0.6164294487566683 -1.7832937804607052 0.9129239902233139
2764 -2.088498223769797 1.391583431951575 -6.0205092325281235
3165 0.04986455873637243 2.601895857487485 -0.295236137134537
2767 -1.2506909920755411 -1.3133595130469975 1.873660939225577
2768 0.14909411711012516 -2.3942532807177543 -1.3410005184217615
3166 -1.7375589521046408 -2.762692789304677 1.1561977648789432
3169 0.014863368744649837 2.9663185297179804 -4.049871915642221
2771 -1.0741406521826653 2.6422851565727026 -0.1687688509078324
3170 2.0114651458837627 2.0051816472287567 1.0619889392481925
2772 1.0139662253682324 5.448075884155064 -1.1496221129109847
2775 -3.1897026440264775 2.6902817258788736 0.7982835291615412
3173 1.644013415484413 -1.4643878881435572 0.42587813995815665
2776 0.06862817151860344 0.26568531595413564 -0.9766726399452658
3174 0.15095439668037497 1.2842628880087477 -2.0636175834284063
3177 0.604010284125393 0.8918688588540696 -0.964800804424761
2779 -2.588462083073345 4.507655909130576 -0.7499446510637469
3178 2.043797122683041 1.0400990929208813 -1.0508221146196397
2743 -1.102374862821874 -2.2646481937872944 3.178315022156263
2780 -0.4852694812803495 1.260879041535079 0.7261186991783867
3181 3.6646337859322626 1.2901201064673598 -0.5340276574063376
2783 -0.34038078463549604 2.0677185637968156 1.769690863757226
2784 0.07243200829121343 -2.113386844154285 -2.2060760652313443
3182 -0.38946606127635686 1.6219863226300515 3.4991118061069963
3185 3.4125317475147967 -2.6528094630288717 -0.4136239426954229
3186 0.07085900862513722 2.378055461416642 -2.2573364374063623
2787 -2.829209601163549 -0.2399019212303119 -2.4259837627374297
2788 -2.2339876110373265 -4.041727981841752 -2.1948617173310945
2791 3.2893140732130934 -2.5002810046366495 -0.48995191930398657
3189 0.26771547622973746 0.2267123534200666 3.018883766929343
3190 -1.818653030044083 -3.452591381996209 1.155319659035952
2792 -3.2944766193908346 0.5646944023926872 0.011894854983686143
3193 -5.757550749267343 -0.35537567326504543 -2.2047858266393834
3194 -1.7997281309134803 -0.8017980173375732 0.8709484835166922
2795 -1.4400715330769567 -2.4574044046104886 -0.35217019099676944
2796 -0.9542422596369924 3.5235372375384757 -4.658039159740222
3197 2.979875616883023 -1.1965769087701192 -0.4728474182063857
2799 -2.224736785636688 -3.6945184624109997 -0.8807466366563262
3161 0.3680044503163445 -0.6438283435879747 -1.6253859550459608
2800 1.4888665952033397 3.8254390937300564 1.9674470641291593
3198 -0.6442314122257089 2.7360622480652887 -2.128183119879068
2802 -3.5764934462274964 -0.9081487886083588 0.6864215042727452
2404 -3.1924528484288284 0.8196229854821124 2.054352639854901
2403 0.4882811140655391 -3.028605041159678 3.762893442930399
2405 -1.585542168850697 0.8302742638701093 1.437491034569966
2805 1.6456290188442135 1.3156405372882936 -2.0010978409397704
2408 0.06853759364478368 -0.8812294485630014 1.730219085696881
2806 1.4572513617891913 0.48953324825321626 0.8330819042117158
2809 -1.3750936860365988 -3.2622194377348817 1.3294904371355736
2411 -4.684446428072446 -2.825834900991421 2.343883974482628
2810 2.319893552795339 -1.0597580908624329 -1.4695669533785258
2412 -1.2371876646491782 -0.7183989195931055 1.1090446958182143
2415 0.5645564526396829 1.5317992131427691 -2.489022723116083
2813 0.614870017699186 0.10616696943717535 1.5121941665545457
2814 -3.1971414411218992 1.4624026792780986 -1.0903346082196064
2416 1.984275889938266 1.240018360825717 -0.625346660324338
2817 3.883649199347565 -2.3819687281422017 -0.6028632646511503
2419 5.196303643481065 -3.8723966096093836 1.5071970163645656
2818 1.8506820322255295 -2.3265024833618098 3.518270173362043
2420 0.31781323010517054 1.1594778958427203 2.1738642303870774
2821 5.020172481963407 4.18362193844019 -0.10852984277954388
2423 -0.9024040016086796 1.397631921565268 0.8973922377426536
2822 -5.89001438529877 1.360222825242359 -0.6475150196512126
2424 1.3972683276956233 2.145756158801105 1.1618653453294818
2825 -1.9713503454834225 5.748788635506126 1.0235427178940903
2826 -7.878638245678974 -3.7521597549987247 -0.2607107435981795
2427 -0.12799318802032755 1.838160254261745 2.233032815870838
2428 -0.3284490401431056 1.6027347128922573 3.5286348575531132
2829 -3.5462156307246304 0.8577550262382375 -3.994546345705079
2429 -2.565525948619756 0.1272169096948396 -5.402768674025085
2830 2.2062528164746653 -0.8425006519721185 0.26282888071900895
2432 1.407409634973495 -1.5427054785980983 -1.264840258475558
2833 1.7415517524052329 1.6854794592752078 3.43895176789948
2834 0.9756556896756501 -0.32890086792496426 4.105545489442022
2433 1.6605033666647095 0.2501441434569687 -3.811863773315587
2436 -0.598880249668196 0.5172050872032757 2.467332214742148
2439 -2.0175593132217715 -3.407602186858679 1.4483965103434895
2837 -3.684976399827648 -0.6693097580680681 0.004740639335932121
2801 2.8417654641516785 0.4046136801017592 -2.418090649156728
2440 4.207519242420812 1.9442467566050128 -0.17287684694791194
2838 1.3571131118882123 -0.1969873729680925 -2.3576446162469993
2843 2.4319357808785145 0.39876503484461145 -1.2415497098892851
3242 -1.2020386381543267 -0.4704841552621422 1.5459953373297228
3245 2.080620211435774 2.58846875498568 -0.7345653696294375
3206 3.632273528350124 -0.5520157646150308 -1.1004603748958115
3249 -0.10909994921855697 -1.8479092446487788 -0.3089908878216062
3210 -4.464063615382837 -1.462988964500761 4.585747187167431
3215 1.1078381219028735 -2.598169547569817 1.3337471343756329
3213 0.18066798182024973 4.056675312554187 -1.542874119550125
3252 -0.18735263623373763 -0.5794379937410528 2.1717778111053243
3254 -2.6990372545897507 -1.8917819166923115 -1.0684937278462787
3257 -0.8062100358460528 2.196239963080368 1.9527285430567325
3261 -0.6451359268296557 -0.4598328284559276 1.7124222323348008
2864 -1.1805397928318098 0.7783383043718042 -2.577094194323488
2463 4.571520022019365 2.8030880455809495 -5.266511727017022
2867 -1.5042153391318243 3.20998470529685 1.7753355593081406
2905 -0.23368975535508202 -1.7839190919221901 2.2786941990720875
2866 -1.218554610430917 2.6916259131057596 1.25971181383649
2868 0.6867945289999741 -1.3294596930539158 4.098156494192306
2468 0.2676378855530515 1.6781797898850768 0.03681059538505889
2869 0.5913402133477155 -1.6335957310182174 -1.698488758953628
2430 2.852184733074415 0.25360171942499776 -3.41747136910065
2873 -3.5705489392412 2.9814129767297 -1.5176682211631656
2876 -4.761207791519131 -0.9882247982497522 2.424836448648787
2476 0.7890666951777997 1.825465149981772 -2.936555679734825
2475 -2.4830744268479084 -1.0160652309372427 1.0921570382639019
2920 -1.7775327318720524 3.4394895387864937 1.969029977152098
2880 -2.373404189023585 -1.4403109470394313 -5.79894632851612
2443 -1.9507017988596842 -1.6490274177753488 0.7243117944603951
2847 -1.4120120338240523 -4.641271372545864 -3.8815515949882693
2848 0.022461700945584112 0.2742729536158434 -0.6722422263410089
3289 -0.725015528709366 -3.801257186285275 3.433339703471328
3250 0.8805449959897094 1.5308884047817977 -0.0491021183922982
3293 4.3854426042915104 -0.7151887397047486 3.062997583273798
3255 -0.8891577726747776 -2.7611895549317347 -2.8534523541364405
3297 0.4787336081552597 -0.764692358800787 -1.4521655134076017
3258 -2.2115128214051665 0.21065244334756406 0.3971673468120397
3301 -3.7794807091357385 -3.018225053883515 -1.583527118095433
2502 -1.7795570925273154 -4.070397803845545 0.2882778118019325
2863 -2.103487179805647 4.439929780090318 -1.4581985581124706
2467 -0.325287789079039 -1.9237053241131683 2.722019127114603
2466 0.43353232562344335 6.107751008201102 1.2434687717925053
2506 4.619925528124971 1.5078759987876198 4.440749645686051
2908 -2.2219578704981497 2.5439413790888157 -2.259073663140851
2108 -5.244883001452207 1.4003563458525863 -0.011718400920519931
2471 -1.9694581831134936 -1.6869091590424639 -1.631394515648322
2472 -1.8468590192950562 0.9887013986143229 -4.924186402298607
2470 -1.0385084602891934 -0.2994398907570567 -1.0055883970965842
2912 -2.37531992931806 -1.688351813883484 0.2178423666350976
2473 0.8041481020464355 -1.585358823837718 0.9029898224482896
2917 3.912908025414607 1.5142482763643779 -0.2971294997701725
3317 0.026013331602177003 3.3597698135515635 -1.9634253649392788
3320 1.774206710264124 -1.9435232196016785 1.0240835619113366
2487 -3.4143023154122587 -0.80139466896261 -0.5542845230769082
2884 2.3788192671231014 -0.12750215160561731 -2.7044509026184076
3285 -1.980004237610333 1.413391445685302 2.4478434859011164
2888 2.8522141775268586 0.9009414353279487 -0.5481392873213876
3288 0.6014621952324404 -1.3051079619739805 -1.426891077081125
3291 -3.100391402691762 0.415848826910543 -2.251701012898626
3290 -2.2293903965301882 -3.692800884000824 -1.2132335052360799
2892 -2.1006707762399377 2.348625022279141 0.8151023532201828
2893 -3.330725256551546 -0.3812304584111711 1.3652988093338556
2895 1.1407899025837247 2.3712472492489765 0.9874126468238651
3294 5.349869948793505 0.020252125008942197 1.1297904191490906
2894 0.14492580562167376 3.0852034940336774 4.476667816553467
2899 -3.4318704020272475 1.362582139488799 0.25348171035433387
2898 1.0155883843249631 -2.733578165341857 3.1280875812225077
3298 -2.925034885987348 1.387359727376415 2.660106171376319
3340 0.5301310412528849 2.47871894086352 5.958223968425527
2903 -1.0935695966137406 -0.5338122802524509 -1.720045620461663
2503 -1.1952119491110498 -1.476681129189297 -2.837847099932191
3302 2.1984140150769518 1.0321412559395522 2.0671762169352266
2507 -0.06297886422907414 -2.9718260703940524 1.7325746301777865
2505 0.8663653999767571 -2.358584448712921 1.8401759049262763
2907 -0.35270794302152236 2.9913822098349874 -0.6002269970377285
2548 3.9003430053998693 -2.504292121781258 0.06347448922695753
2948 1.246915132324998 1.7001882962741015 -0.6554084885348286
3348 1.2678292703161327 2.868027692821542 3.900876992405023
2549 3.853913430256265 0.26473732128228733 5.704455501578166
2508 2.3721918219032316 -3.507959386612436 -2.250645613781532
2511 -0.9173252540925226 1.712309461030502 -1.0720785591460482
2909 1.02593351435667 -0.2380337020415677 -0.514345779493616
2512 -1.1721989936014574 2.0374620150244214 -1.3377017930249742
2509 1.3625895803104318 1.3551033663215573 -1.569192367635106
2513 -4.232954129288379 3.7139054486106002 1.4847798773328038
2514 0.6176735361437873 -0.7260461229735392 2.030207039368801
2515 1.28323456975896 2.7070349272861827 -1.5602561635440009
2953 1.671231656216611 -3.563896089822178 0.35705395624490455
2517 -1.636529183757192 -0.05679944792080678 0.03691844563818185
2516 1.6776809177283132 1.0671351307211658 2.704506905190028
2957 -2.7543405660682443 0.793213093783102 2.907660809557739
2483 1.3677824073081597 -3.8949562372347706 0.1332707512221782
2518 1.7159989372989728 -2.18028936735392 -0.8581559536740491
2883 -1.471494397349561 0.6460028490777319 -2.786426063380245
2924 1.340012493462495 -0.8064051210306433 1.328833605973841
2482 0.11462403535360759 -1.0971333653875108 -0.39384659333921934
3282 1.301196328956279 -0.644410729042589 0.7827165610505852
3286 0.21454285556447258 4.470163674220701 3.6909597384445236
3329 -2.209782706983515 -2.3250877035396647 0.4641806134819754
3330 0.11534510534831119 1.2618094078061488 0.21068320730563206
2972 -3.6326457184726175 -2.8146603076347207 2.0238453743298654
3334 0.35260372751063207 2.073970328989889 3.9735145222581805
2936 0.38882595270848064 2.863357320740568 0.16543901189585522
2540 2.7811346290934593 0.4066245292532628 -0.17740765896972896
3337 3.1861273605044147 1.3999518962576447 2.839218352841208
3341 4.428647161569881 0.06777827003114778 2.107631091449736
3303 -2.843709372216194 1.1593684163150149 2.365300917845595
3343 3.186159182954879 -3.230315846608569 1.487525134084442
2902 0.3858130850260706 -3.50815384922264 -2.1247790627836265
2944 0.9701909177472683 -0.9472485868472093 1.7453238960134054
2544 -2.919313859966568 1.901908396900192 0.3322278873190388
2545 2.004517310441249 -1.1087044486996833 4.883805493740799
3346 -0.9512496742570191 0.5941141630069071 1.7881477216883357
3351 2.905001589064513 -2.2870084831409287 -2.0178182665522884
2546 -0.32535035528504386 0.8614241467668291 -0.19162808551800828
2949 0.2309060947703071 -0.1291263598780579 0.7012539559306371
2551 0.06420140921577402 1.4265956748933446 -0.5612107606637822
2552 -5.773894491849961 -2.154501053911054 3.7276821054841682
2550 0.7929220704202705 1.9185056077842857 1.7049305225079765
2510 0.7043008942783031 1.3377178832029741 -1.042831987015812
2956 -0.28621935153901623 -1.4055897042687253 0.5274793360699566
2519 2.7382489081637984 0.7246553580634412 -1.302803531161239
2560 -0.47389057496248094 -0.8433780285102183 3.167633863170256
2558 1.3881149886172102 1.9803972663185365 1.3114401782067424
2881 -2.7872570390729825 -7.883565045573551 -2.4528264547842022
2521 0.5149407154745509 0.021210156973539958 2.0617683450074678
2923 2.140162945129876 -1.8409026413738125 -0.7147551468992797
2922 0.6247183269678259 -3.9851127883800754 3.122512491775362
3322 -3.2560705836778134 -0.15996808467320622 0.9893221465201878
2968 0.2650390682264674 -1.1344631315674347 4.463566961808248
3326 5.640653971916204 2.0957244041283447 -0.12571834470008061
2931 -0.9985340575132776 1.9277258133310098 -0.7557289369097219
3373 3.308486714363298 -0.47281504164019483 3.1693938926883414
2934 -0.5982911877660468 -2.5595102656691298 1.7447261725909273
2939 -0.5492246291728934 -1.1277106498058649 3.431427889527296
3377 3.398352065726798 0.4667478361190845 1.8954351810799535
3381 4.020220258906366 -1.7639520409382135 -0.61775526746599
3338 -0.42590506378010745 -1.6366699188248035 -2.6446137100451286
3342 -0.29974579102659304 -0.1568544929798599 -2.0014204490133856
2951 0.7357351097870224 -3.7574179511445847 -0.21811225825510921
2947 1.042181016750386 -0.15550448690348767 -2.2133868956094944
3350 3.452702211493936 -0.8644852810447063 -0.6359132085305591
2952 4.107662058057229 3.0810177396392784 2.896623728240343
2955 -2.556165513941603 -2.224676144478596 -0.17053280531808032
2954 1.641668132467546 -0.7417224736955006 -3.0120239555242105
2959 3.4274945208492733 3.0561886694391096 -2.4103352364877795
2960 1.9711607842171281 1.5955062369826103 -0.32991097216542997
2963 -0.25977040340170054 2.528557386112393 -0.3023250079423349
3004 -3.0359331403390635 -2.043072456541225 1.4825777921609318
2967 -2.6031430957881185 -1.0033146792688505 2.4703556917423466
2964 1.2359701083142984 -2.242586719225429 3.3648956542939117
3008 0.7402026662356943 1.0207670103420377 1.1794705472209508
3369 3.1828113986046254 -2.042626152390688 -2.14461119512554
2971 1.262493210921282 1.1296616042108458 3.300253664897365
3370 0.6857829853021249 1.515346437563079 2.3335060698002885
3012 -0.7069175456494048 -2.21372827156878 3.3360482394033038
2975 -3.09988431099503 -3.975611634244503 -0.6145529112523717
2976 0.6366583542471419 3.2483836761050173 2.2812129078228995
3016 5.45652793983242 2.0239687936687387 0.4512557306836101
2979 -0.31162756332476726 -0.9421669551363743 -0.5122561702344617
2980 1.8980268462720171 -0.35063470727321033 3.7293663192985305
2983 -1.4468602468767644 2.066036535601716 -4.609075200459209
3020 1.4057030318955044 -1.2197480149064024 -4.725620538217869
2984 0.17957809440188668 -0.8816732423629465 -0.5366916874089491
3024 3.647297847175086 -3.2328707976782165 0.8987592119638419
2987 -2.8020705684598277 -2.3979894963506663 2.063242139035543
3028 3.380137579677261 -2.211858254178257 1.0864229025805856
2988 -1.4760226341311031 -1.682970589379607 -3.4286898322828043
2991 1.9510337914526292 1.6983108661491149 2.0163486515705977
2992 -0.9775623604374314 3.0896226371992332 -0.2039770815649147
3032 -1.4495024299619597 -2.4811685832169577 0.13080167065196432
2995 -0.3872753533350738 -0.9855502236554224 1.091684980410174
3036 -1.0726111996937675 0.8350143957885908 -4.4050660549296765
2996 2.400317132616222 0.44439978751965326 1.234299619137778
2999 4.6848542875371475 -1.3711157209296145 0.6268242494942767
3000 0.9251896521466764 1.407743548465314 -0.23900584369386801
3040 -0.4227704226236375 -1.4247708075388996 -1.175818026481544
3003 -2.5544170525073704 2.5261706446115566 -3.1449943222988432
3044 2.152272883011327 2.5839973010652137 0.24568195163061174
3007 -1.5052009574318694 0.5974264674192934 -1.2788087387466067
3048 -0.006527120702309574 -2.8559548113864337 1.5470356951238795
3011 -0.04659580341095358 1.9056003152962273 3.9281669804745047
3052 4.122688405977856 3.175438600792514 0.7087791166245202
3015 0.18976492203679138 -4.5498569109113625 2.677231026503165
3056 3.5364998355203148 1.307425562874941 2.3532741868673135
3019 1.641747886484794 2.0669480909639653 -0.5108209630730425
3060 -2.559264967577719 5.286480283342423 -0.2295936182909103
3023 5.61937937694904 0.01865026142461163 -0.19151939104564358
3064 0.32507536410018567 -0.4229662063240665 -2.4929318315766
3027 -1.6771798133719107 -1.8684956749877146 -0.12430239253432675
3068 -3.6769186844416577 -0.8738281892144607 -0.2789312098450795
3031 2.936472117522499 0.3751250798497642 0.2353218512371716
3072 -1.560758884621949 0.20598630590227957 1.2263685498783896
3035 -0.6560099982565237 3.9409132758959347 -1.6657515694209393
3076 -1.8188620389643435 -0.1122282884037346 1.780751956453422
3039 -0.04148370619621539 0.5696838145560209 -0.5982273920486108
3080 3.954078800385385 -1.3127829296234619 1.7886691738297613
3043 -1.263497702706168 -0.8492968550206456 -0.898575080611733
3084 -1.9757308870997627 0.010776560737659004 -2.256700193474783
3047 -0.5674845018486304 -0.11613352724453077 -1.1027493774499213
3088 -1.217270609894814 -0.4248158679344791 -0.43269463258217783
3051 1.1466798711751607 3.502100524305978 -0.5590378997169136
3092 0.5681887467468509 2.420711036790271 1.203553532205028
3055 1.7088925944103606 -1.5627038172981094 0.7079033145390428
3096 2.2043614266712512 1.8421331547534192 0.6949515411256982
3059 -0.03152988438394482 0.6974348972618115 -0.682388428904884
3100 -0.7774210961312109 1.4427359545610199 2.0964478919720464
3063 2.0506382613745813 1.306759174321027 2.328608672603879
3104 3.840751136005127 -0.8542122675710782 0.13446952639913287
3067 1.1369311803724826 -0.3511848088111117 1.801750515620199
3108 -1.9410697845603646 -2.15709318697256 2.3952089361133697
3071 -3.6809620851611586 0.11602814954441003 2.596397927515473
3112 -0.5146206177122649 -2.138509070166087 -0.2077914986424369
3075 2.635521798757555 3.777711750633263 -1.208335618792221
3116 3.7130554499630257 2.496128237680257 0.747593842900088
3079 3.1600002960867495 -1.5443901033255873 -3.001900348064912
3120 -2.829636601615482 -1.8458952112098292 -0.5186917821630347
3083 -0.6338091825025997 -1.4487811636589596 -0.8566178661487408
3123 1.5326331443261816 -2.2474673331085095 -0.27218336540728244
3124 1.1823818290274204 -0.5875369602028382 -4.944360859544887
3087 0.8569634240906477 1.229866592477924 1.3773783950794487
3127 -0.7732749143315013 -1.1716077866488395 -3.218682426664061
3128 0.823899318513597 2.35776870359478 1.4027452727963672
3091 -1.365675486361726 2.585489565784251 0.1814439404814129
3131 1.2939854113633162 0.25660573100676215 -2.8560274062367212
3132 -1.5554570322011714 -0.922619226480232 -0.07851290771420635
3095 -4.961191972729313 -0.9317947660995948 -0.7133000450338649
3135 -0.018694262662872566 -2.692724802045714 -2.7435149411447277
3136 3.403718728612566 -0.5219214049455208 1.3119330857051068
3099 0.5516573905768227 -3.1123669092556177 -3.1063077037312232
3139 -1.7152852107600052 0.5629950005933 1.7580984044549628
3140 -0.26797296856288083 -3.8880197967724497 3.1973848358163672
3103 -2.4403973593413464 1.421750438024116 -0.835311654786152
3143 2.3376021164800265 1.290875567985019 0.4322913023350416
3144 -0.6409374263227795 -0.18934420401380175 -1.893545584611583
3107 1.2814067177868789 -1.0350897975909261 2.8195116202869053
3147 -4.494962839665586 2.2372510969012707 0.4990571400381531
3148 -0.24412377147444422 2.438810973837078 -2.3783989632871125
3111 0.773304235991921 -0.5770334006233271 -5.306830378191981
3151 2.2789158669982377 -1.6352902044319286 0.12777709386765002
3152 0.491955756186698 4.426259504916043 -0.4937008255022669
3155 3.6616421031602586 2.335053464473268 -1.2118246304723914
3115 0.30857928980310306 -0.7224775581044761 2.5657171703757604
3156 -0.6752803554623203 4.76730649878884 0.4228313529856764
3119 -0.5232399545806715 6.669063709823981 -1.9113432351335735
3159 2.7025140301383157 3.180696568815744 1.591038043218854
3160 1.7749570068492688 -2.1069725893040068 -0.06889339925824597
3163 3.0706211593748094 -2.2504570352379374 -0.024173433481806405
3164 -3.4015412000944174 0.03248158785694769 -5.062683315630273
3167 -0.05955764250374741 5.918178241332381 -1.436357053873723
3168 0.6715190287806898 0.6759140826874686 0.010093605676427581
3171 0.60890999145517 1.7091919652409662 4.085618944906506
3172 -2.6771147123443697 -5.250801579281345 0.674050530975738
3175 -2.984840860275149 0.24553649865205995 -0.5659006911424284
3176 -0.7356253445127132 1.7473535976884644 -6.101353666571572
3179 -3.9968395971694664 3.723988213380206 -2.137174643869072
3180 2.0971180178088766 4.713845911119488 0.2642503788960839
3183 0.09656170758954237 0.4384726885729703 2.102458563427555
3184 2.7980379123401566 -1.7072425694435118 0.3410469264538605
3187 1.006182583286969 0.6836669357216277 0.4535820586625258
3188 3.0992871628206555 -2.406457228493886 3.1325597097938647
3191 2.215395810443161 -0.7167544377395043 0.2562762275784411
3192 0.5955942189477497 -2.6275733379407247 0.19910673529233006
3195 -0.2671062975596394 1.454268656287376 6.413562300760441
3196 -3.373346721783017 2.380343092327669 -0.5527256880548502
3199 1.0468513545031708 1.127929075138699 -0.1906656678979386
3200 1.0511705610533677 1.4574575516308885 3.1173739432121264
2803 -0.41287128782248755 2.7409243763534756 0.17685950365694267
2844 -0.2364758196428137 -1.8832762144427704 -2.803453109884936
2804 -5.45898515133967 1.5608973658661678 -0.11787818289982975
3205 0.3713305831331107 0.5166361158257388 0.2848349152120465
2808 3.273366012412578 0.13342813692454963 0.7998920568336694
2811 2.302950792192274 0.6287790333144271 3.5752448217314408
2812 -0.8975697935776933 0.388094287941689 1.2709608194822637
3575 5.293349224481553 -1.2305147830226604 -0.14959461147730405
3214 -1.412800538255924 -2.785560947006468 -1.0146326782565849
2816 0.7061891686059157 -0.032516806983400225 -0.9620014980137045
2819 0.9468470471257764 0.22225856497683286 1.620702427537757
2820 -0.7047681275894275 3.5085868871775183 -2.7658892945964624
2823 -0.43060439867728617 -3.1055609776918796 1.7136060474156802
2824 -0.6459579931360455 1.7224982264007764 0.8610267711608622
2827 -0.6074609403672275 2.448008707936823 1.2272164011585762
2828 1.0758186169637622 -1.1547917623946737 -0.039004974681220016
2831 -0.6563701525803912 -2.0690257465158055 -1.0404812262947092
2832 -1.9318187738317356 -0.629090811224637 3.92932259437819
2835 -0.9403888446733227 -0.5136099860606356 2.179828643451763
2836 0.5078215078813625 -1.371827822275663 -1.6172500385787536
2839 0.9388594675446805 -0.9615489886601692 -0.13447689264040533
2840 -0.8607729705677963 -0.15902901576314932 1.779768884628532
3602 3.8439766459328033 -3.2800944407667205 -1.3061191048864813
3244 -0.7647762991608057 -0.4976244593340579 -4.379474278977487
3243 0.9907410799211821 -0.9859403245282292 2.190950107412163
3207 1.5886581839738672 -0.43311974589240465 0.05239389153249393
3644 -0.5672594580743131 3.2598119072449134 2.9961678917249954
3607 0.28178769566845974 5.616504550614934 3.5748001274854286
3247 -1.920609399740229 0.9483607522563628 -2.868148659889496
3648 -3.531773492626482 -0.16499508933956397 0.3058661439660004
3606 -0.45075446362577326 2.0607352641081875 0.2023286648214984
3211 -1.4851804754677962 2.5076558357569807 -2.2117543647387845
3212 -1.2291217543205075 3.844105597353237 4.746745311141728
3611 0.6560969543713348 -0.21221753698674387 -1.200388247215971
3610 -1.2816066785809537 0.1655634059426321 -4.703425774398432
3615 1.067602853797024 -1.1321763163198004 1.9603044958593956
3653 -2.7453798847400206 1.8986339455777776 -2.5963944180822556
3256 2.7334526820386844 1.4403634352495505 -1.6232085609984122
3657 -0.41335489574576767 2.2001322292288727 0.23545539653697284
3259 -0.13303736996967644 -0.3261487096290958 -1.6002057152985074
3617 -3.067298378853901 -0.40052729612740584 -2.95364944096096
3219 -0.7294048687600382 -0.9419546581382766 0.4172954397234115
3661 -0.46762120355105424 -2.13024935211665 1.790810570392188
3223 -0.7481249334622843 -0.944139950540449 -0.9783928115093136
3262 1.6481476073564107 0.6966494080513599 -2.237320557595766
3622 2.021948129098181 -0.17830019307422698 -1.441099381662798
3264 1.8730991318064463 0.15136262164364198 -0.3423380096556275
3665 0.41946735768775634 0.09938077747361877 -0.7130910215028877
3265 -3.438769334352189 -4.0601642421225685 -3.5990001649159686
3267 -0.06437550214057565 -0.7173590069763223 -2.3638238846753965
3266 -2.2717588884841415 -0.3916499065300619 -2.5724836734978633
3666 1.0692622491776786 3.0802359430920725 -2.9291260087432995
3309 3.184658085980635 0.3641413569268614 -1.3030026227271343
3268 -0.06074666787765718 -0.9140172080232681 3.607680793927761
3669 1.9471758795746608 -2.3905554482939624 -2.066024234552061
2871 2.3844825783466987 0.1549684808468612 -0.15335417518891398
3272 -1.1712033563364619 2.4326817700644647 2.2039478898886493
3269 1.5442806666512972 0.6983655054584947 0.23232147811810697
3271 -1.4750706431318765 -3.1110379066512754 1.5135353168216688
2872 1.8878642407434312 -1.5621509391286 4.49917364898328
2874 4.5531575513733635 -0.4552854082237996 1.6843151216494467
3673 -0.6209203021703359 -1.454133871110374 -3.000304724541817
2870 -2.306256180981111 3.530631479627658 -1.2454996214237593
2878 -2.209712014551114 -1.8552270492047769 -1.0120926315351932
2879 2.3881840821667413 2.889272836357646 -1.214830857642063
3316 2.6149161288812497 2.7400913953094146 -0.1704463939308141
3279 2.705599743768316 0.8965527257494544 -0.5838536768619971
3641 1.4626001556779642 -0.2554745261587052 1.0933242413878361
3278 0.8879404635039946 0.39236843700229584 -1.7321924663089963
3284 2.0370977662745973 -1.1118533929665755 1.30144308415786
3643 0.6918381272083595 0.9657286044669273 -0.6265870584034018
3281 2.7809755995474057 -0.8830985117930752 -2.22001073619258
3642 2.7916150552505816 -3.820921671357406 -0.8051743568512938
3246 0.1805090294381263 -4.3124373563890295 -0.7029459802376287
3645 0.947880704962391 2.3700436392141526 -2.2276238446842966
3646 -1.6695997761742694 2.7119792662539526 -2.927391334172304
3248 0.7379507144146558 -0.8324938381341452 -1.7420657228088632
3251 1.7800746551470261 0.7973608971888876 -2.9603420082198757
3649 1.2821000051813676 2.1343218813325806 -2.3688997111471033
3650 -3.989660111542552 2.7938337500600037 -4.522489021907069
3652 -2.6651463868099823 -2.534730367062595 -2.7075909286965785
3656 -1.6696084883294458 0.1770769805388289 -3.1068732268449795
3693 2.4068298187418713 0.5480252031375149 0.9675973194430626
3696 0.2214991817087345 1.3623045192634338 2.251037810982721
3654 -0.17476940889003767 1.1017398122930178 -2.104849197163571
3697 2.100095924835737 -1.6986787577197784 0.44816752524739817
3618 -2.4253012362908883 -2.705435880654502 5.764338013649307
3260 1.9103660621522949 0.7935612700746317 -0.7988585990957973
3658 1.6468120382632512 -0.16835908449307188 0.9933124168652689
3662 -3.771474741334856 2.5746543168436546 3.287469539029304
3263 -3.0933551179250913 -0.4894313826853096 -1.392191191212068
3305 0.859337009750383 4.1601516110701136 -0.859621427642527
2904 0.9501387460122037 2.4857495554855564 5.709994158255372
2906 1.1132146620350891 -1.6823047486613714 -1.8223141175236706
3664 2.4878310456689507 3.9244881522542654 -0.575953345692779
3308 2.7014661528727455 2.6453447710785896 -1.4224098797403413
3709 0.02300081297794011 2.834613490738692 -2.796746145530597
3671 2.154812994519435 1.2592645339786792 -0.608882951495611
3349 4.92245994004476 0.8930103440693996 2.41685143370411
2911 -0.42413153764315936 0.5813023568349742 -0.4434958274843937
3670 3.368258609445287 0.8225897503804049 -0.8459413092943019
3310 0.27126306456843013 1.2869937328400556 1.1658799691615258
3275 4.165006849185845 -0.4403463277749933 -2.2073962038294797
3313 -0.7493241398406457 -3.513148418070664 -2.9846904304858857
2916 -0.21688107547040014 3.041359767732532 4.4020015675586235
3717 -0.2482423352142011 -2.8824551077139557 3.0573735378113245
3720 -2.799128550373457 2.0567985301851284 -0.0671279663561811
3678 -0.9153635603374605 -1.251047788093992 0.5097677651533034
2882 -2.3944200904128556 1.8057077337633647 0.00513769962178534
3681 -1.6772536480458176 -0.17376443025676927 -2.6251169944297486
3685 -4.293295867931343 2.871232001825789 -0.4925295151072119
3683 0.7977970211599269 1.6370507651323671 0.678052568574647
3682 1.3727085256580769 3.6310130650017314 2.7154495772613982
3684 0.1523825914160542 -3.675018438692634 -0.820918280679338
3647 1.010151252787648 -6.644183790435323 -2.6694135726802957
3687 1.1961884623074122 4.623503410594329 2.1173918803912284
3686 0.4120725496398189 1.780740277582019 2.2277200558249866
3688 1.101097724482995 -1.8889995536423343 -0.11074774132044854
3689 -0.46299134015833104 -1.5746013526728453 0.2870192774069071
3729 -2.138708377045733 -1.3900619760590776 1.8117870544933998
3690 -0.5948025431105423 -0.92047009641412 -2.1837375005917536
3292 -4.290242878813938 1.0703254774184323 -0.37987013594142177
3651 3.6466360404424245 -1.0918401863782374 0.058733194022970364
3691 0.7876065549513493 -0.17753085870201035 0.05624800654588714
3333 -3.3827623440367556 -2.047470706995417 -1.3234907656651103
3655 -0.8678211574297702 1.5664139083026463 0.3621282731889284
3692 1.0873321934150193 -3.097330938806939 1.8776779093489155
3695 -1.850610567017845 1.1964481386192551 -1.595988619050371
3295 5.6443436737535695 0.22719344905525227 3.2900623621950573
3336 1.4702124316829086 -0.6802428827372832 -3.3657989676884643
3694 3.9725323922587075 -0.6851362761609809 0.14648173764538594
3296 -0.20664245808078627 -3.258063914468713 -3.963870953686416
3299 5.819024856054083 -0.11614143745606513 0.7129496215824606
3699 -0.11678459388141697 0.9218774658708238 -0.09252483232894687
3698 2.1283747637221806 -1.5799042146721634 0.8605242715914071
3659 1.042894610890081 0.5610577873749497 4.711545557798326
3300 -3.45528970899667 -0.7833153726556189 -3.4526892837432226
3700 2.4037733033885083 -2.9857023101011433 1.7318101437754816
3703 5.760778823972858 -2.6342730933316303 -1.0698385596679851
3304 4.854312310192634 -3.33963547449065 -2.689907457170108
3701 3.8488582890139105 -1.2956081152470302 -1.961771366868862
3702 -0.08292481946456103 -2.5066195153317885 0.5827910764514644
3344 1.7281373187078852 -1.9050745455918279 1.6512363955894944
3306 -0.10688930598565922 0.5930852430426978 2.479693462722414
3705 3.077378563130642 -0.5245495310019168 0.46267221723320645
3307 -0.28289204572859905 -0.12763884580124005 0.9562007009804865
3706 -1.6922674354237563 -0.17559080717074557 -1.7897684636490807
3749 -0.6105996845026525 -1.2134158412937928 -0.42809096198528096
3708 -3.760910127425787 1.3498498909363097 -0.2736666441212611
3711 -1.720233398523842 0.07418404079713871 0.5547220519199448
3311 -1.8889311453848296 1.3925022343334603 4.0140934503298595
3710 1.5310886640477828 -3.1375687912613093 1.5732550844847886
3753 -0.9628211063499761 -2.693595082037139 3.3065757967756353
2910 -3.203143189531141 0.6127810672247576 3.0556201458223757
2915 0.5465580228780903 -0.9504078402758034 -6.256173763573228
3715 -0.765682966539305 -1.7285508875638298 0.5335696498049561
2914 2.839181342531966 -1.8420006676388077 -1.4039523037101476
3312 -1.4944611854894763 -1.599667632007723 0.9950680577445352
2913 -1.6856967715400375 2.181410244598113 -0.13245627463372922
3315 -1.6362622710149104 4.108964675233817 1.5012592531781792
3716 -0.24682154214923424 1.3252485941032726 4.065926553102589
2919 2.7349024517731637 -3.4866254915912367 -1.4908201252664295
3719 1.6068695749041564 -3.531079346667669 -0.5044070535005623
3714 0.6800844447706891 -2.048485775818214 -1.3067966447557726
3718 2.22673499825864 1.7000082879978184 2.462575952105083
3318 2.8343144932605044 -1.7175109113157898 -1.3314908837609611
3721 2.4402285816398304 1.1223096015032383 2.4803954868480775
3324 -0.3305932651224622 -3.2086594389590766 0.9215226326091915
3283 -0.11484996974905426 -0.46443750228205416 -0.5129867370820939
3724 -1.525213728082839 1.8364984327076928 -0.4873968308502047
3725 -5.429393012703638 -0.7359041440443155 0.9559770792887702
3287 1.4177740952447495 -1.4485551440506248 -1.941116672657693
3328 -0.43046342798446796 3.759671847799053 -0.20160796481538665
3728 -0.8680165024603432 -2.8205275316617375 1.80134107891105
3332 -1.1443965878979396 1.7755107535555044 1.2633546490385041
3731 -1.6682131036784875 -0.07271495680717473 0.20752899784114304
3730 0.9447536538592999 -2.397155714639961 -1.0622614564357906
3732 0.01499877231576839 -0.8324960996350096 0.920969237128891
3733 -0.600730284184514 0.46031123976424976 -1.0049218913349032
3735 1.3241104254977436 -0.23463722985122967 4.006690170348635
3736 -3.695861246014788 2.7666908775938204 0.9169328110326822
3734 -3.0527297694442024 1.6537749507665829 -1.378202911021987
3737 -0.11915048409663953 -4.257039201891788 -0.24959747486447784
3739 2.8375797283185196 5.0943866932246795 1.8584384734858284
3738 2.433739232984989 0.9552832203751314 2.5086846388528885
3740 -1.6060679166950849 1.1884819823400121 -2.0100067253020155
3741 3.0964526079914205 2.0499914051861823 -0.8695244396286027
3743 -2.7668665788959736 2.949458013550977 0.7450312505255791
3744 1.3070181284576892 -1.4703655683687564 0.35212093974493464
3742 0.9303086009806234 1.1799309036413332 -2.569695846156402
3345 2.140623839445416 0.00036441299762000407 0.8626389230227596
3746 -0.804389758328459 -2.6611186358696934 -0.9000030872837264
3745 4.62828151345482 -0.4941323641224793 -0.6852463564182942
3748 -1.4263321270037754 3.37272003427911 -1.0398090491911678
3750 -0.6378369577648448 -2.6666712480848536 -7.50338071516208
3751 -1.5900152058520136 -0.2903520213305812 1.4970421588431835
3752 -0.8999658031496192 1.542418654718968 0.3590154826350497
3352 0.31422776754201054 -0.7959768380643334 -2.845866741940772
3314 0.727441879014567 2.20378476814469 -0.931277004144946
3793 -1.4160067635084403 0.07645384131499837 0.527733875730044
3353 -0.9103136353339276 -2.2740156692988114 2.8351777803590474
3756 0.9697587042327147 1.4900991530730712 0.21543311166700296
3356 0.17875307017540962 -0.6514591094514424 -2.9959365917670757
3757 4.338668524617795 0.48602723014370974 -0.21155620800274075
3760 -2.529320959421367 3.3087505134287687 1.4484237660122705
3319 -2.1665865802829125 -2.2316483008892334 -1.6590263420451665
3364 -4.096771853655627 1.9022636213681712 -1.8864090402979357
3323 -1.263245501627072 5.337307697553103 3.3970573330514298
3722 -0.2679333602383329 -3.406039121908051 2.356965521502871
3325 3.80765716879467 2.600622708895874 0.966579895498443
3327 -0.8588482248161299 -3.127140443969103 -0.5272914850148467
3726 2.0795046675508773 -1.4404614259579653 -1.1262860694813668
3368 -2.4302643584216344 0.9175971033244295 -0.5430008762527178
3331 -1.976857243796422 1.8526958911684057 1.970151415978138
3372 -3.12916457826003 -0.6540848868405111 -1.1384103321732237
3769 2.4100074977082993 1.1303039398976031 -5.9906635139450986
3772 0.9317091253790153 -0.0008170352160113696 -0.4046538247830517
3335 1.0311050851303554 1.0139694938712813 -2.649388377227428
3773 -3.610431031125268 -1.5258288458607157 1.382141187954711
3776 0.699873466694134 0.93545922451763 1.872217470000913
3376 1.0225525252929217 -3.468429868128838 1.768485919029776
3339 2.0724525756715266 1.3487764963686932 1.1394582828063282
3779 -0.8758596523717086 2.0821372480872213 -5.089788965828196
3380 1.1065072626472576 -0.6465304594536198 1.0067616168297393
3780 2.309224913946708 -0.254197371280806 -2.080971702426805
3781 1.8127370698936378 0.10981461522485418 0.8418908483767356
3783 0.49057602767282726 -0.8426002791634949 6.0740317676740565
3784 5.57008453353647 -0.18185618414452454 0.44424166187606334
3384 0.41225380622371016 2.4636938904182397 -1.668341134618418
3347 2.0367966274624343 -1.266475678890749 5.635304109940438
3785 -1.0072894308594098 1.332246106541115 2.350778117990031
3388 0.5915898819536441 3.2761358428099654 -1.3982026888140657
3747 1.9947049622070065 0.873305096937608 -1.6021412174163683
3789 -0.41656176440229076 -4.772111252970735 -0.769587366647131
3788 0.49834408389337403 2.242908698218799 -0.6527900174059202
3795 2.630545695469147 -1.9906768443185625 1.8792417740784948
3790 -0.1438290261252314 -4.757393240808413 0.05652465276613528
3792 -2.0383715924475894 2.2063746576118763 -1.0183419311702275
3392 2.9647195976422975 3.791559799436887 -4.0466506063373
3393 1.3339782805816487 0.3122361811846145 3.260917877499204
3354 -2.6147846513848436 3.113085259627132 1.6268104664446652
3355 1.9732820351012947 -0.3974432023723469 -1.9351421088776832
3396 3.548444640167254 0.33372494598512603 3.7871733866573716
3754 -1.0300561335508946 -0.29986118287198743 1.3634548869240901
3397 -0.7810835903882611 -1.416075618531472 0.6661172626431585
3359 -1.6532004411010774 4.367131013042051 -1.9851990639659
3357 -1.8722705546454388 1.2899141242166354 0.3709868763045605
3400 0.20860853943975025 -1.391919137085276 5.329433101958818
3321 3.188343642525546 -1.8506523308251464 -0.513199294513538
3361 1.71206234115159 0.6888689414758971 -0.7721879499520334
3358 -3.9207230598911953 -0.2637477532629552 -1.0239342345968105
3360 2.1911997674023356 0.32255731680264077 -4.7051237552617
3362 2.9773484631423175 0.4003345204336704 1.7652774859053313
3404 -0.035004844845573146 -3.5326509947052704 -3.053758583466707
3363 -3.4074752432771276 4.246000313894605 -2.5524306173565146
3405 0.8140478770584397 -1.0324289228062313 1.8770807810222085
3365 -1.185314459466932 0.703690094464272 -1.416961648010286
3367 -0.48975653805253005 -1.1737959902528887 2.2679146649548354
3765 -1.6904102302555957 0.5717789215969553 1.6004301552845837
3366 -0.2897536334732817 1.6760275606351742 0.5370226048011484
3408 3.670881884844536 2.0952420864727275 -2.463168435247541
3766 1.641609011498126 2.4028462227272187 -2.072483592867092
3409 -1.4525572132879934 0.42600279310866185 -3.277989105802896
3371 1.292591584714397 1.9092969813327358 0.7070274095991604
3809 4.4812051994688655 0.7965965790858942 -0.21528397487442444
3412 -5.309872159147536 -2.727820268118281 -0.9881727993984679
3770 -3.4851177123023827 -2.457210083772561 0.9709978805585853
3810 -0.5812708786320266 -1.0280192654540858 0.30221292150028267
3813 -0.7679018507698179 0.6086302727631294 -0.6729451493113506
3413 2.9989205656479676 1.2613897976753494 -3.215920416567009
3375 -1.674934932535882 0.020343727777845447 2.0301759381214515
3416 0.4638119133684359 0.8065249801276163 -0.6881959894852197
3374 -0.3713300733404705 2.505413163025523 1.7780343072839255
3774 1.67518129802856 -0.5333372157436795 -1.5938472627650955
3777 1.2279275661721691 0.3465536372860236 -0.868529408458661
3417 0.7059669988142627 0.8773780781525123 1.0408915596061774
3378 0.4643653794077438 6.043423281309942 -1.197359787981436
3379 1.5403563163592444 0.016835692862073388 -0.7230455950213207
3420 -0.6970749359510976 0.28402697223905443 -2.341160875477119
3778 0.7305998974831919 3.0566966084560856 0.6868261709290464
3821 -0.12256744560013963 -1.9137360686459421 -4.078039089069299
3421 -1.1744746661086587 4.030014756142147 -3.706195010786226
3383 0.06155145676535962 -1.1273240233251738 -0.4913089884920274
3424 0.8235660581454641 4.1337808159247125 -3.624761916556772
3382 -1.0310239888585886 2.8771535263424926 0.2493810322041945
3782 1.8812535798492844 0.1418224408297765 0.2509820947651067
3425 -0.9759066736271628 0.6076285933427176 -4.65948606241183
3385 0.5231474222147368 -1.513803406085335 4.382993465181936
3386 -1.9911295524352646 0.27708879240852574 3.500895541943784
3387 -2.699691344227777 0.06404397195181347 1.576041205777087
3428 -3.914413848253106 2.0275685620595767 1.3412340797020232
3429 1.2722811545890416 3.743949320200171 -2.916147390175689
3391 -0.06455504824692919 0.7675590711180709 -0.13917679698077343
3786 -0.011917858805239961 -1.628890769686527 -1.347001400519294
3389 -0.8040301420005195 -1.1384890978624271 -1.8792063460494597
3390 -0.55008102411244 -3.8160114856221483 -0.6757877571775806
3432 -0.7282400801573821 0.40375212029175883 3.5795630403694916
3433 -0.2676287331937266 3.62368366693161 3.969197625271964
3395 -0.989469234041973 0.6964197460267888 1.1845933000931907
3394 3.0349007936304804 1.4266786275756358 2.281477336591616
3436 -1.1407532259649584 -3.1580139658412034 -1.8353009665574853
3399 -3.438551225631202 -2.208373165293951 -2.403739307938694
3437 1.8997608225277 -0.8225008269598466 -0.49861227745747727
3398 -1.7505528160827601 -1.3934186513276245 -2.7162706311805356
3440 -4.412255089907075 0.42982631435061897 0.9961506344322534
3401 -2.773677782555673 -0.23092332782875133 3.596392644802118
3402 -0.8895793317021771 -3.9914209097046793 5.858610333812173
3403 1.4613181306996226 1.2956906921601954 -2.373036942478847
3444 -1.7733308887732144 1.686522448412059 0.43643009121454374
3407 0.3378380174787528 -4.880636449347684 0.7232394002658189
3445 -1.6017067533945633 2.325857769980132 2.596057530993193
3406 -1.4549739490459834 -0.02131979454782193 1.0629433673190387
3448 -2.796683254598181 3.286370390897716 1.657890614044272
3449 0.27056295734474334 -0.5007951426851651 -0.5223947318013884
3411 1.9690227335891786 2.2102664251849355 1.0452146070026094
3410 -4.211932216242192 -0.915064729245473 0.5615116782256355
3452 -1.7295147177889043 -1.149687192695503 1.0037523085133353
3453 -1.412691051830197 -0.19953282438878206 2.5538758750520985
3415 0.03407522233873489 0.7683544489430035 -0.6046396429801777
3456 -3.279054484926624 2.1036689643980186 -1.196745216560424
3414 0.7733414094040837 -3.128313300786541 -1.0207602323901994
3457 6.741628790539429 -3.042866936911336 0.8814491509105378
3418 0.635321156994668 -1.5271468525995502 0.5699038427094678
3419 -1.789535088891588 0.022562121889151625 2.363844004676323
3460 1.7188047059028122 -0.32541589593945064 -1.0275236416568154
3461 -1.6252193379608317 2.536978027392666 0.4883753659171683
3423 3.136781474931565 2.21272673703141 -1.5215073634383771
3464 2.4138496002927314 -4.858126620870898 -2.5963023094292486
3422 0.3570918465944967 -1.6967918615269606 1.247329867964943
3465 -0.3185439759991091 -3.458614998182111 -1.561064850897098
3427 -1.849166747733686 3.648803412415225 -2.2664163803425503
3426 1.101646244781435 -1.6001167032994563 -3.760675053178189
3468 -1.4855830160222394 4.4529875915315404 -3.7127708639690313
3469 3.8848545753340087 -0.37604089378732736 0.11206927343398204
3431 0.06933725470026418 3.4335614353323325 0.47081480962768785
3430 0.19142259370472361 -1.4509741660726347 2.2982809108308286
3472 2.3008520717374554 -4.533456025537572 0.7284962670379477
3473 -2.5459916576829786 -0.9078843926786184 0.5376500955346188
3434 -2.1788400555081857 -1.9518007698299318 -2.8179893339599538
3435 -1.02848937178563 -3.147620694275689 -2.698628391267421
3476 0.3678652423387252 2.0347111454876767 -0.08389431310470338
3439 2.0531534803987967 -0.7404689710784415 0.03006629617784407
3477 0.342231720193509 4.602865796787622 -2.9401099903346046
3438 4.065243114732853 1.6205809320193656 1.6644035905277885
3480 -0.594716330480488 2.0363428893701143 1.4682768076658372
3441 -2.7052440303749568 -1.1280138770527552 2.2607733450290257
3443 2.0027018032857153 2.779840992094267 0.28048685978182464
3442 4.599191246408911 -0.7325367978858958 -0.6281217992848868
3484 -0.7062779666430571 1.1126750249706212 -6.390851389092821
3447 -0.023766062395104856 1.9468555424904495 4.385878677235268
3485 1.8539982996998687 -4.07833177980465 -3.219063974287387
3446 1.5467587254330948 0.12301932414945463 -0.7198578218567185
3488 -3.2558135315610452 0.1473993347549987 0.7545177523512165
3489 -1.0834846112361132 2.167317790002301 -0.7772935889659407
3450 -1.2493710719107782 -0.6374592076592007 -1.1164371704849851
3451 3.4548504221379917 1.3135401784017295 2.491404933203886
3492 -5.673139156539052 -1.4310325773105503 1.0191823292944382
3493 -0.2127078023719846 2.332130428300457 -4.427349102272722
3455 -0.5217578180628105 0.16936486728453867 0.49731222584426765
3496 1.5337726759648513 -2.3967483836849084 0.17984453728399513
3454 -2.4765090159357226 -1.0726358309385007 -1.9987280326551327
3497 -0.0772708761757158 -2.636574593152271 0.21152981453442013
3459 -2.5700129861681114 -1.8280404380244784 -0.0699813584858202
3458 -5.629027821081676 -0.6447241889338646 0.44463606043769405
3500 -1.824396039581542 -1.811566233665375 -0.18713020876363975
3501 -0.9509026975459788 -0.8394249637990085 -4.462405609360745
3463 -2.3741623619792045 -0.2934995998383296 -3.5150369413544267
3504 -0.9562203385647695 1.2563174498379894 -0.39785513961290053
3462 1.026152449035085 1.1283687103405566 2.2413666842374864
3505 -0.9850159698107429 -1.2719546258942451 0.11403352593857985
3466 0.19242802216613025 -3.438485313812299 4.644142708037309
3467 -4.162360373733369 1.390863611963223 -3.3461749096448736
3508 1.2505589307587108 -1.0560798255966415 3.3223068413741728
3509 -1.3944526176002108 2.2051168289509 -0.47733092509702535
3471 0.2560523519938016 -2.149106738862321 2.7177084484523877
3470 -0.6137863874889457 0.11146537341084937 -1.9723985606394945
3512 0.1181113322815869 -0.7345956694403188 -5.292678994842835
3513 1.8769333654200482 2.228685160695261 -2.714222264747542
3474 0.06315527758450735 -0.40699354858506026 -0.9625809462082145
3475 0.7223172492765713 1.3233808258658122 2.948340183898273
3517 -0.5654316377139789 -2.1007668909918387 1.2488585872297249
3479 0.09540332251694754 -0.9926708213153342 -3.575903080585698
3516 2.265860724601459 3.101849397674224 0.8463741189037153
3520 1.6447099091759607 -0.8664102991212483 1.0621927550820671
3478 -0.4235941139129002 -5.8836885926281735 0.5344734897043233
3481 -0.3770244105180033 -3.4869241129463493 2.981155918421135
3523 0.5301651764081264 -1.1074663436620784 -1.0317831767546288
3522 1.2839624967125465 -0.8921150940436063 2.4560974221866347
3482 1.732317889599403 -1.7187611575023853 -1.879683087984555
3483 -2.8134465142466016 -0.06400144660225494 -0.1243800022196574
3524 3.40220716835378 -0.8904445430875964 -1.712782908690575
3527 2.086516511208023 -3.06689171565673 0.6945403546838933
3525 -2.558642533608265 2.363625066548735 1.0104515905187745
3487 1.4012391063654928 -0.11449773838982866 2.650955338034174
3526 4.594828649394326 -0.6416608296950641 -2.6455848294453284
3528 0.8189523440493787 0.12328892972967553 -1.3032441133422985
3486 1.56428000550869 -0.35040304572015474 3.6724139437643317
3529 -0.07061287544275201 -1.3199440372969524 0.6495980247460801
3531 1.6711768982700717 -1.286056909551066 -0.4509581674893438
3530 2.8896287006414707 0.9790319610156325 -2.8832405555205076
3491 2.257937095289899 -0.9343760083311874 0.007688880101077565
3532 -1.6466998306304024 -3.034928376465419 0.9957840999085229
3490 -1.4333946441607415 -0.3789032477115006 -0.7647032750758436
3533 -2.626485527629262 -1.1805336078930417 1.2714771426373308
3535 0.9420342202455312 -1.2590456958811607 0.24268661413341028
3495 -1.4912603194483411 3.1133762386249604 1.8113991243020027
3534 -2.4900560017917535 -1.0292190898850673 -2.641087077539542
3536 1.638211297403218 0.7023885145307546 -0.5932765379853858
3494 2.3728981689999684 5.56169190331339 -0.22485240252035327
3537 -1.8634053928741834 1.3456647802311148 -4.281616208736256
3499 -2.3044086223468194 -2.2435703761106596 2.819869732975473
3498 0.046903087349851505 2.128432232994408 -0.5646889772367683
3538 0.004486497929660017 -1.8903941829891946 2.629091247624321
3539 -0.2196825886700701 0.7704420811069916 0.5400989732524689
3540 1.7939137260457358 1.3930683108197 5.662587822630121
3541 -3.0755713730516425 4.2681555931511355 2.6354830863630805
3503 -3.6031575873476323 -0.9459352384619487 -2.030969724727006
3543 -3.979585893750652 -0.5927250056713823 1.2121949489181694
3502 2.7457493304034952 -2.002605793027297 -0.7464437159542996
3544 5.436887526922589 -0.37021555662590394 -0.8682627133692445
3542 -1.033715097150911 -2.295679281471088 -1.5798575253923237
3545 -0.4327648421508075 1.6164147525341868 -2.7075250657551977
3507 -3.614357271163759 -0.9004518958932785 -0.03295744426796665
3506 0.40000913542179084 -2.0615525521387936 -3.709365768103212
3547 0.624947089795086 -3.078604990985634 3.1330144854410813
3546 -1.5571103368884143 4.2318784357983565 0.817180068044847
3548 -0.2697216533463877 -2.420178445687192 -2.8985156078060204
3549 0.3717389857706532 -1.2297181515203601 -3.6493817759179326
3551 -2.2571061817423392 4.708645647010458 1.7253578314607987
3511 0.4201868591962155 3.7565559015202252 -1.128701836867102
3552 1.6665289903166263 -3.7621598956183218 -0.331622639401191
3510 3.2523150367066327 1.2942509003165108 -2.896708712233788
3550 1.1902694397268991 -0.0304976654353655 0.9728932325484809
3553 1.721532560146723 -1.4799277093998136 0.11975106803843907
3515 -2.084720989474781 -3.2213612080377323 -0.19648529400508613
3555 -1.5804281711475971 -0.5739631498463895 1.1941977973320412
3554 3.5847680213877933 -2.139746047266608 0.806383243432898
3514 1.4001701216956792 -0.7764273192190518 1.3162433952541668
3556 1.422576897983311 2.511267756549325 -0.8885747169900219
3519 -1.9952237017688181 -3.7571893252795907 -1.1704402823502145
3557 2.833784480415665 1.3405733145198226 -0.10032576758736389
3559 -2.6300051260666915 -1.2795966614965277 -1.7461068687351557
3521 0.7993432581033292 2.732080939516753 1.1881996251426368
3518 1.3333425895294564 -4.8259823304407075 -1.2148137132132897
3560 1.164178987748411 0.7402192427241687 -0.783104831620423
3558 -0.6423354276944326 -4.887902384397954 -0.46838175580303576
3562 -3.444326619424988 1.402893992736665 -2.1025904108764317
3563 0.25321989718882965 2.6931024097165523 -1.8942105717152962
3564 -1.2402289758936693 -1.0845622541379099 -0.0005753920512113201
3561 -0.8006797162957425 0.6214017359006817 -0.04201229055653064
3565 1.4944358133580145 -0.02244997918446952 1.1689941955630643
3965 -0.28195248547888285 -2.8968002106789172 1.945677082832383
3568 0.5298571742267558 0.8734307568833245 -0.16805347233575896
3566 4.179492327774347 -0.629806731616203 0.5770966865993326
3569 4.214171747062721 1.875943752171184 -4.735590408048105
3570 2.2311059050834263 -1.5037162882311854 -1.2310533883003691
3969 1.1066867997789103 0.2113454201957804 1.6237520755138963
3572 0.5649647988251955 -3.1088628743779108 0.668688445911729
3573 0.5504824575717293 2.189739981491576 0.3620524710710488
3935 -1.5564993259585966 -0.07273770583706622 -2.451966352078178
3576 0.5875146598251704 -2.8877078543170036 0.40409370131731015
3574 -3.2271752270564544 -2.120794170117317 3.522860162766029
3577 -3.182357395241091 -0.3484246776507418 1.883466341385341
3579 -1.2789395758010196 0.6484452758734149 -2.3039117705188863
3578 1.3325544582225164 1.2529593569206614 -2.360339590586563
3580 1.037511496986091 0.7694983468544839 2.1976793699387547
3581 3.0318583022868517 -0.19913878272545016 1.5775900644670375
3583 -1.649851910144297 -7.107804244935277 1.3757829099388341
3584 0.9509207327796974 -1.5750210572014016 -0.8355859358449751
3582 2.021562275077763 -3.2847605477396287 -1.711905095223304
3585 0.5574712446305119 -1.3893387092397622 -1.074258140141645
3586 -2.674708716092772 -3.123737996466598 -0.8911956505221584
3587 -1.167150593129917 1.873281585629872 2.8228826994304006
3588 1.8668811328898975 1.0286643978101837 1.253919572658717
3589 2.338233764958989 -0.016621772384629963 -5.630123186112076
3591 1.387132304696827 4.196737294011533 4.679643446236545
3592 1.9618808369228227 1.4747850757010812 0.48069521579617835
3590 3.2285012139203717 -2.464328619233839 0.2954409455425431
3593 2.0262092016818265 -4.822058048229934 2.3996484574739094
3595 -0.7497188291959056 -0.09002204788689902 -1.9937041425399065
3594 -2.101074629949768 -2.2294280181311494 2.4291386480561536
3596 3.256951636581955 -4.262451001607214 0.3444093060531179
3597 0.7482594752430738 2.1780652898692794 0.9753443605609285
3599 2.6947503830512303 -0.9660381746264164 1.2750128064343913
3600 -0.3587680922679383 -0.6423537111494505 -1.81284930669549
3598 -0.45261952355845875 5.01973537275325 -0.7556716484637047
3241 1.2871302499387807 1.419917130226909 1.7110308061004689
3201 0.6763225334231225 -0.20194361085599924 -4.223568912218434
3202 -3.6679343333471466 2.8860854299917675 2.073280632174427
3203 -3.1829285415915556 -0.2796140062394673 -0.28080385041027883
3605 1.060262169874813 1.2500266638233584 2.2307572106902676
3204 -0.3053587385650652 -1.3761586711052018 -0.5546080710726683
3567 -4.6005898608704205 -4.279134306820423 1.1253211663065765
3966 -4.6361836181774665 -1.063678565198293 3.1558800652558703
3571 1.32406506363042 -5.216284607545247 -3.364440087093891
3208 0.944683454251224 1.8805608564987872 2.614673708824274
3608 0.31226120074399316 -0.9988919984621362 -4.828333983877075
3609 1.9138108549649475 -4.831410966980981 -0.7839876109206022
3209 -2.307996923319449 1.7918521579510884 -2.3265964885040153
3971 -0.49552857388261823 2.8704150004777 0.17657317867026526
3970 -2.5372668086854757 -0.6139813617324115 1.5144604491400249
3612 1.323364539838458 1.033459853423404 1.2676710724608364
3972 0.8778924321528695 -1.41125769723815 -2.2007328588652832
3975 -3.6007683650450972 1.9516088284205748 0.11127149252143141
3973 1.7359793482160648 1.098032937299495 -2.485134773639336
3613 -0.9158143627587293 -3.154576696936983 -1.3964796941712132
3217 0.39596027428637265 -2.273382502592974 -0.14889706534281968
3974 2.737347428261598 -1.029100067848339 -1.003534666863836
3614 -2.2202782532083076 6.4747249689372195 5.265149549789637
3976 2.4834492782624613 -2.097844381263599 -3.590257019157945
3216 1.216393794586548 1.4596998284731786 3.117762542871099
3979 -0.16411078621841618 0.05776297324041478 -3.224796283524785
3218 -0.021503645885266796 3.0503669816752645 -1.7282048589428796
3620 0.6946327416421918 0.7551805410323373 1.8390737544884665
3220 -3.3222521023903795 2.255634941459612 0.11747194593011415
3221 1.7848185460696615 1.0980379805684066 1.723059764017536
3621 -1.6973520380379947 1.7055663840045054 -0.5651223341720856
3222 2.559022963951898 3.575347494813589 -0.47226468844147
3224 4.853052981844816 3.8575520005859447 -2.8374226841381076
3225 0.38794014032745905 2.2085589886551094 -2.1500153831395585
3227 0.5641455375841872 -4.28516356811718 0.9018892584464699
3226 1.3049348214194783 -1.40733994948426 -2.2336360888077733
3228 -0.48437740746518704 2.823204733410605 -0.9910277460770333
3229 -5.928055505527282 1.831794976196863 -2.183296190553156
3231 -1.3331657399696548 0.6664735546546405 1.527710754328524
3626 1.8514479805011816 -1.0009257530736961 -2.6177937343251374
3232 -1.297653085977509 3.3176754787365015 -3.365833675047467
3230 -0.886109843847475 -3.591326932588571 1.9441095579188201
3233 -1.0890649393678336 -0.9040561778412235 0.604803978503526
3273 -1.3786198000705958 2.0480644611785577 -2.6297532877554075
2875 2.147695192118715 4.133639759876767 0.3627274983702851
3234 1.3851305196214319 1.8108270571947571 2.169867889557756
3270 -0.43203324702856905 -5.6220689643918345 -1.847272878492401
3239 0.4290572894592981 0.36246223477400713 3.681047578295723
3237 -0.6454488295225812 -2.081318681789487 2.260462244488264
3240 -0.36567375594010576 -0.6362308121249933 0.9995174588208454
3238 -1.1091595859465686 3.329895879828415 0.7686959284397343
3280 1.4891939500724445 3.0292345346482317 0.2946435741012457
3603 1.4740120613500594 -2.6669110311880333 0.3277210915217305
3604 -0.9907983688021601 1.578328711252532 -3.346053003947167
5 -1.1343444860961407 -0.5436194391133975 -1.030428454655994
366 -1.2821912377868645 -0.09009586467242003 0.20130703537405692
9 -2.3189239381172397 3.9178916901884002 -1.9446617426521626
370 0.37315792375514745 2.181539956382008 -2.2255907998171063
13 0.9063377233978467 1.3480695213457277 -0.07435451705916946
3616 4.030298088034699 1.755465889039395 -2.2632142214798523
3619 0.49837897300015804 1.1846634842375907 1.7369105745481084
18 1.7384786572625555 1.1789534256935732 -0.49362134836347243
61 0.1646077651623404 -0.5207662296938864 0.9674551303211333
3623 1.1684952917629403 2.6641102389313684 0.6324173735091843
22 -1.450916163096019 -2.8787109072246264 -0.23326617132143257
3627 1.6395234641899832 2.4095376468201297 0.19486520249655578
3668 -0.09154185125258282 2.972396216317933 -4.795689350567445
3631 0.915884645270727 0.7191988291275427 -1.860014713211006
30 1.6710177963193362 -2.0364692758546483 1.2214932355043187
3635 -2.6102029979361454 -2.1837560625713115 -1.0623103176404607
3276 -0.9706454649243267 1.3150700221406137 -0.2190361128053781
3677 -0.6475353836797079 0.5535870574043277 -0.9796087415652476
2 -3.335604766586276 1.3216171330995583 -0.16017949281215832
41 -0.23663131028928994 -0.6998152175069521 -1.5820515820751555
42 -1.000631363693912 -0.027592443452805294 -0.671903561721683
45 2.4888304829201493 -2.136345874646826 -1.1772015170862975
6 -1.4427071098794622 -1.9834938425146116 2.746072153639662
46 0.17789055862065722 5.5202894203955 0.6969908713151929
49 -0.5055829695355123 1.8028149577213228 3.2765410686822207
10 2.784829846493937 3.8567075248898264 -0.10672831491767011
50 3.3382857527398726 1.7113355258439416 -0.584795552766987
53 1.645272643651455 1.8298166712343786 -2.2309733154903646
14 1.7812622735627488 -2.7075073885884584 -2.4188745810357752
57 -0.8285877314796856 -0.9360019050439538 4.60965887802182
54 2.4442357327568844 -0.9200671547054 -1.032958965951294
3660 -0.8037836445175299 0.9825797049800064 -5.857148359722267
58 -2.4271208683285783 -3.163069917240184 -1.0205473705732155
3663 1.7000574067378351 -0.37247772088177705 3.338322717934403
62 -2.2359004280632138 0.7416267442604181 -1.470765168904034
105 2.5310460579312974 0.905915096440175 -1.4288071514261043
3704 1.710465592364245 -2.8806450277333218 -2.977205402620801
65 0.7427863231727689 2.8613094237112366 1.5172565075377358
66 1.4173749558659763 0.3071614856245147 1.39862181059557
70 -0.2158915639073699 0.8647370701919411 0.8423129545564846
3672 -1.8247951631919446 3.149870153872281 1.0303858513792825
3713 2.6649989084107193 -1.2092882195661758 2.014452016123885
3679 -1.6677304884662143 -2.114679186489628 0.7661780109686802
3680 4.005087880031222 1.0616079879016136 -2.2110050727334314
82 4.923313741215453 -1.079878159691247 -3.751688466277984
81 -2.090177544630222 0.6295877395462119 -1.2467554883575447
85 0.2889894824907044 -0.38701965251696085 1.1336850416657032
86 -1.8553649275510666 1.5865269633671557 -1.0087030261116785
89 -1.047691598221006 -2.116097228916573 -1.3256463392606108
90 -2.1204511842846934 -3.168095032238705 -1.510384121429571
93 -1.0950280810404396 -0.30112183775483875 0.23287359853794676
94 0.5041786684565683 -2.910590166823018 -0.5922046471068132
97 -4.623134419003461 5.359899488459385 0.6651475251022103
98 0.19715489279612908 -1.8730659870202573 -1.9554952926793645
101 1.9450946393005202 0.11537114626211863 -5.234999041683328
102 3.0459295042675643 -4.879241635336936 -1.4022955068547007
3707 -0.7026694798760521 1.9261241210577391 4.742975916446037
3667 -1.617515012279533 -0.7072709508757494 2.3856501500695586
106 -0.0067742190850330255 0.35480508105460895 -1.4599068641155848
109 0.2639198774625647 0.06584368012714838 0.20694888618883212
3712 1.0651735417488204 1.2424623754523292 -2.8332584876353692
110 -5.381128346777438 1.5196919883329711 3.1285615470663455
113 -0.4855545253999545 3.4896033072390713 -1.95534908929348
3675 -0.97520873862555 -1.1842903693534477 -0.28425838402842823
114 0.042803465514974076 1.8317203766270322 -2.815641443749007
117 -0.6208460203747003 3.216466274548422 0.25523316898378556
78 1.050627350683365 1.221724658962996 -1.9175634728047086
157 2.290002206857986 -1.2917797160240865 1.5188722555049643
121 1.0671999091289996 2.559870749889138 -0.2316060744511435
118 5.81375571525132 -0.31450352424540623 -0.5052181175900873
125 1.4494174031660485 1.08539852658333 0.2234656711368701
126 -1.027459371608674 -2.0351888483194327 1.864692737352058
129 -0.5623353264963251 -1.6050478859014288 -1.9580722361781968
130 2.3865701554767913 -2.6127572955520484 0.45630869158958337
133 2.205137631627146 1.302259930551369 -2.4437495549426256
134 -0.6053728917074048 -1.406638436440781 -3.4227726652020953
137 0.6225800284254662 -1.119119696692351 -0.7090975817387325
138 1.2256323043212551 -1.0186565864608574 -0.8297164214520198
141 -1.540587611783742 -1.500579435882585 -1.8565584939530528
142 1.053029224734375 -1.9553174094179542 1.1576996578178578
145 0.1739588395621761 -1.9941773662587026 1.787663940577556
146 -0.42771128409800807 0.3161544686142554 5.425275329268752
149 0.8114893691784326 -0.2875859550450082 -1.853403912100096
150 -3.9094126657132087 -0.7951405818758389 -0.9008974873741821
153 2.8078013702800035 -2.2181757955940364 1.272715158136159
3755 -0.15159708286711057 -5.212673261349024 -0.5728317303111482
154 -2.220935617422749 0.04205153441031185 1.3400466808650102
158 -1.5930046399247326 -1.6184232974918251 -1.5516888073346595
3764 -1.6373376644592617 -4.469799795468899 -0.04952217238811288
3727 0.4855782507149711 0.40701579838194146 1.389218716372262
3768 -2.986021288231755 2.754766826404334 -0.8669472401168237
169 -4.505193305661009 -3.2793856736299216 3.4196988645507904
170 -1.5592316190647373 1.968204545802267 0.4429255573059915
173 -2.0389218214690374 -0.9302427599380865 0.9943895010879858
177 2.5210710488307235 -1.8543493511921263 -2.5192282896982614
174 -1.5335235598597454 1.9751452853434708 -0.4875487140092916
178 1.1300976191932035 -2.043808019820427 0.5388207428285623
181 2.1993039690311442 0.0009181072447561971 1.8946403428871716
182 0.8911649199423977 -0.8415727595383133 2.0912935746796637
3787 -0.20995223265091634 -2.442416660127924 2.790017646969478
185 -3.4829109153793483 1.7611765660242997 -3.4532820302401452
186 1.3990675523888818 -0.6514638651925998 -0.10703236277302405
189 -0.36689352531071534 -1.9615139039264804 0.8039791791950173
190 -2.360045618483984 -4.63334019985149 3.20261840939211
193 -2.7502592878853505 0.3133676161648612 -0.5805095709335142
3796 0.6648864665778441 -1.3508448136696276 -2.6883909985020487
3759 0.8197601161308982 1.9214234555944516 2.1249088727773446
3797 -0.708179203753184 -0.24459279714503285 0.7085086402270797
3758 -1.4407998952803944 0.3505828644832296 -2.7456373462045645
3723 1.9608009934973474 1.1917593414982115 -3.5932618987481835
3761 -0.7107925376831553 1.5163422781783236 -1.6719479875499201
3762 -0.30653575889195833 0.7153370878806623 -0.31548453360670914
3801 2.8131046655622 -0.21485658779611516 -0.6359221166798341
3805 -0.126972211047238 -0.6492040483200386 6.294652120614321
3767 -2.9421393776394074 0.24774330226808766 -2.2116783733681635
3808 -1.222968572443398 1.1006431073680247 -0.7141227286340065
3811 3.0434248463914644 0.36316948197723936 2.042110183759881
3812 -1.8436508759296386 1.1197313837114833 -1.2088289196699862
3771 3.023429004340333 1.1861414577737115 -0.9725004410349141
3815 -0.7102384361368749 -1.4886021184188716 0.5121991910529845
3775 0.9287132005056508 0.39792554506100675 -2.352160776634081
3816 3.61975649535193 0.3547739662539066 1.0486362014430255
3817 -0.05204217887314455 -6.682601829141274 -1.8591116500808167
3820 0.68646059463595 2.4302057035379576 2.1993805502113424
217 -1.0926085819172717 -2.3816413138858445 -0.08847906217834033
221 -0.6025945579956267 -1.7885692316531236 -0.5860878921544745
3823 1.7229709692809778 -1.3596106338292637 -0.39475967566480447
3824 -1.933286082159466 -3.4074829277031418 -0.022416518871600427
3825 -1.9047656194634786 2.9160540508852355 -0.11093168887370072
3828 1.1886272788573713 -0.40778636334939156 2.754440447205751
3791 -2.9979424015314633 3.2000078828368568 -1.2913187427555133
3829 -1.9323898595528586 0.9905213834619462 2.1455221811445124
194 1.4276836609066172 -1.4072500116846878 1.0554301684881056
3832 2.9005132613632534 1.4136178432335083 -0.3722117336916776
3833 2.5583816326031275 1.0815590562146675 2.8861332007545295
3794 -0.48036884713574457 5.7089620098226606 -2.2451547060854327
3837 -2.164349589100392 0.22934631656316276 -1.8515536294308372
3798 1.3342392558841232 1.55955960171469 -0.4938726157700818
3802 -0.6206163506899599 1.227768465680694 -2.963656069138667
3845 0.1093743180692796 -1.6008565721021026 1.844496633268604
3806 -0.851042326524913 0.6195350929243959 2.28740619359247
3849 1.383970694349707 4.996072186337649 -0.09524111097336757
3852 -2.033870396459612 0.2515013062797337 0.7807793470164299
3853 -2.9247184400008543 1.9622177572169803 -2.536492521450932
3814 -0.16065371213973154 0.6585887069691619 -1.0663584095396157
3857 0.8113901108608051 2.4984117611342858 4.64597866931792
3818 2.6966269350540353 1.0972983768050326 -0.10510532207296297
3861 1.7922498002048248 -0.8401504823280411 -0.27816166319049623
3822 -0.7332854695412588 -3.2008868390453147 -3.1553162640159678
3865 3.3719605564078603 0.7816661498214077 -1.6555926505220866
3826 -0.5602721874366638 -1.4896999711476067 1.2740476871825943
3869 2.1421529409402593 -2.627450056556818 0.972327640650899
3830 -0.19640588084590993 2.4530716924828 2.754888561770247
3873 -1.2199311970053937 -0.6120601099701403 1.0060547752176412
3834 -3.886892987923289 -3.9689886749631467 -0.2887982788091936
3877 3.9594752777895246 0.012030565261447915 -5.34133054261068
3841 -0.9615268586678157 0.05307819678775198 -2.7268256297460565
3838 -2.491967081375586 2.1766493041082837 -2.9170143575022025
3881 5.707006146579452 5.710178724754268 0.9720738787627022
3842 2.274144638864793 -1.0460632262788354 2.5593248255222414
3885 -0.4547224370620893 -2.522522234188513 0.8554990357183615
3846 2.0940268909677746 1.798378982640381 3.4829877200599104
3850 1.4323539082716978 -3.1954952378468104 0.0651525724949002
3889 -1.6225553159427692 -1.4914016744916367 0.66254271251715
3893 1.1209999954318917 3.9256242982201033 -1.384090821135888
3854 -3.892565638413389 -2.1343674503631997 1.8849547268130071
3897 0.0028796539162574556 4.088292150046535 -2.5523423764909583
3858 0.4804237315699003 2.052835454686313 2.534849074659416
3901 1.9799776181009494 0.5001944331902483 2.382779136594502
3862 0.9303004743594601 0.2364247385610273 -3.883230141954741
3905 -4.305449572464207 0.1280353517312854 -1.718830658703681
3866 -0.7858086820949272 -3.5032105185394755 0.1189658437384615
3906 -0.6725493934808534 -0.7938600197485066 -1.565772191849806
3909 0.5484673314923829 3.5385877122958185 2.5370788719089217
3870 -2.434724962922189 1.8268960936486884 1.4753641168099307
3913 -0.25065102857157173 -5.7100793363474445 0.00614494274203726
3874 0.4059481667058671 -1.590414725192548 -1.8385434000072474
3917 -0.9642043474723535 -0.2281670093890205 3.62429880953124
3878 2.521170195253338 -0.13768395348311288 3.4277323654040432
3918 1.0461700162354182 -0.6666522388251072 -0.11927304921550087
3922 0.842791362795574 2.0783117301361664 3.592527448364311
3921 -0.8862046358376728 2.5036879829712935 0.815709437626331
3882 -0.044840141560278025 3.7960779542944674 2.173061743190337
3925 -1.9234225693937013 4.119603554654449 0.11887721364920895
3886 -3.9855140107478313 0.9781205098343965 -0.7190122295459347
3926 1.0966771655935357 -1.6459860418365837 4.308037043683581
3890 -1.0509227130045198 -5.413780887859263 3.2068203965143147
3929 1.2903790949430343 -1.8547212387588417 -1.4513114256016408
3932 -0.26262587320321634 4.74982014882642 -0.1510570662950826
3892 -4.249569986189669 1.3256838732062908 0.7658257423085179
3894 -0.4247151507638164 1.2295329152838392 0.9471643437415443
3934 -1.7063525067184409 -2.584870957387249 -1.0235734582663785
3898 3.3435898395516084 0.8027933871182499 0.7337711124638983
3937 -1.147334922150327 0.9389657227434198 -1.64415915521345
3938 -1.9929234073179465 -0.5176112721439148 -1.6416335272935818
3941 -0.29873951930698056 1.8040231556901076 1.1732202301076184
3902 1.2009799032035897 -0.7241613830128437 0.4383786180737046
3942 -1.041659734446899 -0.7206784639410849 2.3222666603616697
3945 -2.0837617068311585 -0.6494926246785928 3.829159228015875
3946 -0.5017632785948384 2.6408338031158984 -0.5777575499913093
3949 1.485041862212347 -4.577833405966925 3.421931781963103
3910 0.0028842807375633658 1.4899033403104687 2.8852225869500736
3950 2.9914408151615013 4.377020566709835 0.5255461623281776
3953 0.20815375681802492 2.4635362779743484 0.7501549897391805
3914 -0.6795475832493797 0.5468571460655404 0.10263429756738404
3954 -4.269232244814187 1.011683211756508 -0.8098377069116124
3957 0.8577837549213 2.3871042422835997 3.195172834490301
3958 -3.5203198098575297 0.18173698440707511 -0.39476330948756294
3961 -2.665318057837021 -0.7442997338651012 -6.295990300038878
3962 0.4985710282977324 -2.291954294065494 -1.711000032244124
3927 -2.496303763176161 -0.07731436870123828 -2.714583320909859
326 1.6898701281993769 4.481361570619036 1.7439258628259438
329 -0.8494666460134662 -0.7466889286991926 1.0051864713743701
3930 1.8729292271195626 -0.2267578772722834 -2.684614993469071
3933 3.210624952517501 2.0711413010247535 0.6413327817124614
334 -0.03895710069529998 -1.291132110067672 -4.112362197416478
3977 -0.9989518582495799 0.31508440682535366 -2.5005698802898855
3980 0.12989814887430712 0.4975188433877283 1.530133189910897
3981 1.521369457509223 -1.1532355852586915 -2.3556929475659656
3982 -5.394100629522553 3.1942353824354446 -6.954468211402856
3985 -0.24438070479929858 -0.19370867132382943 2.038247182417639
3986 1.528821858248267 0.5147448337595223 3.4003298095901084
3989 0.4693670349331918 -0.6169138382146695 1.0297831540112734
3990 -3.3710191690065057 -1.4226639285018456 2.730427451997794
3993 -3.9665502360144966 -3.108568476992188 -1.750283967113591
3994 -1.2423728830941108 2.0175562610784614 -0.7448986238883835
3997 1.754282619732583 2.272061453720843 0.4711317084471329
3999 -2.316889027334261 -1.7707845039092593 6.043561797764402
3601 2.779879311271259 2.4738470923790827 2.0481156125350006
3638 2.9042657884690355 2.72647151908186 1.7866849202348782
365 0.41507619320612116 -1.0563788213166756 -4.0120479833769735
3967 -0.3986799042796017 0.6156887788691047 -1.5560580774916748
3968 -2.355270973408247 1.7946106364409382 -4.8627967964378005
3931 -1.4071036393283551 2.341511214330327 2.4463394854358995
369 -0.7767747325492029 -1.573903503536489 -2.2236995627398
330 -4.580077975082627 -1.7685493433912767 0.8775281559389783
373 -1.490193367147192 -1.1667476675616764 -0.6892228368032024
333 1.1971493026557314 1.5153241237482844 0.7150486120783789
374 -0.9999033093465515 1.0776294470709875 -1.5684516321529784
377 0.7260610292547928 -2.825370000561653 1.7387285654499263
17 -1.0664304678961216 -0.24633854806858602 -0.8932848787312344
378 1.5549295968848311 -0.8059131134183736 2.9514466494277145
3978 1.4742251208345607 0.09165451228022106 -0.9766790476565207
21 -0.5820418629316255 -1.7587131076853342 4.23399611992715
3983 -1.7213243505858038 -1.8963108646586786 -3.7644222309982465
3625 -1.123639658165931 2.7563304124923294 1.1301268401756457
3624 -1.595499759009822 -0.9529814584835904 0.29839838616192566
3987 0.05568990368475068 0.9220147628321631 -3.3921855756652146
3629 0.7923901429980812 4.551993107858529 -3.9536083869081855
3628 4.172959809179116 0.9398771779567525 0.23061699645583303
3630 1.529751943349005 -2.4638887522262642 -1.354603848420802
3633 -1.049547137471999 0.24577170015968106 -0.3178394982397288
33 0.42211766189026734 1.3867220796742192 2.5803406931178308
3274 -5.607207194109917 -3.287052616732236 0.47486177810149194
3236 -4.1968397178187224 1.009069977825095 -0.8391776570680703
3277 1.2075495735022517 1.494218573941832 -1.8324363908565098
3998 1.2265222146657808 -0.9859424450969396 -1.4560515840050376
3637 -1.0441972306718992 -0.054746125892260876 -3.0106591202943918
