LAMMPS (22 Jul 2025 - Update 6)
KOKKOS mode with Kokkos version 4.6.2 is enabled
  will use up to 1 GPU(s) per node
Kokkos::OpenMP::initialize WARNING: OMP_PROC_BIND environment variable not set
  In general, for best performance with OpenMP 4.0 or better set OMP_PROC_BIND=spread and OMP_PLACES=threads
  For best performance with OpenMP 3.1 set OMP_PROC_BIND=true
  For unit testing set OMP_PROC_BIND=false

MPI detected: For OpenMP binding to work as intended, MPI ranks must be bound to exclusive CPU sets.

  using 1 OpenMP thread(s) per MPI task
  using 1 OpenMP thread(s) per MPI task
Reading data file ...
  orthogonal box = (0 0 0) to (102.191 59 93.6)
  1 by 1 by 1 MPI processor grid
  reading atoms ...
  32000 atoms
  read_data CPU = 0.027 seconds
Neighbor list info ...
  update: every = 1 steps, delay = 0 steps, check = yes
  max neighbors/atom: 2000, page size: 100000
  master list distance cutoff = 6.8
  ghost atom cutoff = 6.8
  binsize = 6.8, bins = 16 9 14
  2 neighbor lists, perpetual/occasional/extra = 2 0 0
  (1) pair meam/kk, perpetual
      attributes: full, newton on, kokkos_device
      pair build: full/bin/kk/device
      stencil: full/bin/3d
      bin: kk/device
  (2) pair meam/kk, perpetual, half/full from (1)
      attributes: half, newton on, kokkos_device
      pair build: halffull/newton/kk/device
      stencil: none
      bin: none
Setting up Verlet run ...
  Unit style    : metal
  Current step  : 0
  Time step     : 0.001
Per MPI rank memory allocation (min/avg/max) = 52.45 | 52.45 | 52.45 Mbytes
   Step          Time         Atoms         Temp          Press           Pxx            Pyy            Pzz           PotEng           Lx             Ly             Lz           Volume        Density    
         0   0                  32000   300            705.9899      -401.52016     -398.33443      2917.8243     -155924.46      102.191        59             93.6           564339.57      4.5082987    
      1000   1                  32000   295.12204      243.81423     -1134.5554     -1096.4846      2962.4827     -154703.88      102.4247       59.134926      93.814052      568220.15      4.4775098    
      2000   2                  32000   298.41887      150.90376     -1204.2987     -1186.4034      2843.4133     -154657.06      102.44109      59.14439       93.829066      568493.02      4.4753607    
      3000   3                  32000   302.35373      34.527012     -1247.2102     -1430.6493      2781.4406     -154682.14      102.44014      59.14384       93.828194      568477.17      4.4754855    
      4000   4                  32000   300.94018     -59.563097     -1369.4635     -1433.0247      2623.7989     -154686.21      102.44154      59.144649      93.829477      568500.49      4.4753019    
      5000   5                  32000   299.20803     -26.385253     -1358.2953     -1393.9538      2673.0933     -154655.24      102.44535      59.146852      93.832973      568564.03      4.4748018    
      6000   6                  32000   298.75337     -177.13324     -1620.1914     -1407.5629      2496.3545     -154680.34      102.44524      59.146785      93.832866      568562.08      4.4748171    
      7000   7                  32000   302.22067     -299.78236     -1663.766      -1610.3286      2374.7476     -154667.12      102.45294      59.151234      93.839923      568690.39      4.4738075    
      8000   8                  32000   296.60433     -106.51253     -1449.4668     -1500.9359      2630.8652     -154675.68      102.44396      59.14605       93.831699      568540.88      4.474984     
      9000   9                  32000   302.4612       262.47396     -1069.398      -1149.6969      3006.5168     -154668.62      102.43506      59.140908      93.823543      568392.63      4.4761511    
     10000   10                 32000   300.7024       208.11837     -1114.5253     -1109.9466      2848.827      -154683.47      102.43405      59.140327      93.82262       568375.86      4.4762832    
     11000   11                 32000   301.62547      149.22639     -1166.5777     -1187.698       2801.9549     -154674.85      102.43818      59.142713      93.826405      568444.65      4.4757415    
     12000   12                 32000   299.69767      119.00258     -1202.5851     -1306.4164      2866.0092     -154670.55      102.43923      59.143318      93.827366      568462.11      4.475604     
     13000   13                 32000   299.0777       115.61163     -1250.5059     -1242.7593      2840.1001     -154672.29      102.43871      59.143016      93.826887      568453.41      4.4756725    
     14000   14                 32000   301.41701      26.818627     -1327.6761     -1300.281       2708.413      -154670.73      102.44263      59.145281      93.830479      568518.7       4.4751586    
     15000   15                 32000   299.46396     -354.77796     -1623.3527     -1783.0353      2342.0541     -154676.82      102.45281      59.151156      93.8398        568688.15      4.4738251    
     16000   16                 32000   299.47404     -374.35956     -1730.2378     -1740.2404      2347.3995     -154661.94      102.45629      59.153164      93.842986      568746.06      4.4733695    
     17000   17                 32000   296.0873      -113.73541     -1452.7912     -1467.8518      2579.4367     -154666.87      102.44703      59.14782       93.834508      568591.94      4.4745821    
     18000   18                 32000   301.21934     -76.838193     -1495.4456     -1348.1584      2613.0895     -154667.22      102.44669      59.147627      93.834201      568586.35      4.474626     
     19000   19                 32000   300.73757      34.728186     -1336.7452     -1203.0839      2644.0137     -154683.43      102.44028      59.143921      93.828323      568479.5       4.4754671    
     20000   20                 32000   301.5021       217.12259     -1148.7923     -1144.3489      2944.509      -154672.23      102.43558      59.14121       93.824022      568401.34      4.4760826    
     21000   21                 32000   296.72534      473.32259     -830.59313     -934.41901      3184.9799     -154660.91      102.4296       59.137757      93.818543      568301.76      4.4768668    
     22000   22                 32000   297.57925      504.42851     -803.29082     -904.72381      3221.3001     -154670.62      102.42602      59.135687      93.81526       568242.11      4.4773368    
     23000   23                 32000   301.04043      204.29694     -1141.427      -1198.538       2952.8558     -154666.74      102.43713      59.142103      93.825438      568427.07      4.4758799    
     24000   24                 32000   298.27983     -88.897637     -1421.6562     -1463.9658      2618.9291     -154665.34      102.44612      59.147297      93.833677      568576.84      4.4747009    
     25000   25                 32000   301.15245     -263.94025     -1658.1557     -1558.0509      2424.3858     -154677.13      102.44989      59.149473      93.837131      568639.62      4.4742069    
     26000   26                 32000   298.1671      -263.3504      -1628.408      -1548.8155      2387.1723     -154672.16      102.44968      59.149352      93.836938      568636.12      4.4742345    
     27000   27                 32000   300.87518     -297.23136     -1687.4899     -1583.7532      2379.5489     -154663.38      102.45245      59.150948      93.839469      568682.13      4.4738724    
     28000   28                 32000   298.19802     -131.08516     -1528.0908     -1403.7508      2538.5861     -154672.44      102.4456       59.146994      93.833198      568568.12      4.4747696    
     29000   29                 32000   300.50003      240.33628     -1105.7262     -1151.283       2978.0181     -154654.73      102.43769      59.142427      93.825952      568436.41      4.4758064    
     30000   30                 32000   300.12309      250.62748     -1049.2123     -1161.22        2962.3147     -154674.61      102.43362      59.14008       93.822229      568368.75      4.4763392    
     31000   31                 32000   299.27227      314.55315     -951.04455     -1116.2746      3010.9786     -154680.12      102.4311       59.138626      93.819922      568326.82      4.4766695    
     32000   32                 32000   301.74684      272.24518     -1014.0424     -1109.4758      2940.2538     -154676.48      102.43356      59.140042      93.822168      568367.64      4.4763479    
     33000   33                 32000   297.92304      185.50862     -1198.8314     -1112.4116      2867.7688     -154674.47      102.43592      59.141407      93.824334      568407.01      4.4760379    
     34000   34                 32000   299.74799     -241.61353     -1664.9587     -1501.1718      2441.2899     -154665.53      102.45185      59.1506        93.838919      568672.12      4.4739512    
     35000   35                 32000   300.72009     -259.41153     -1656.6074     -1589.6707      2468.0435     -154680.48      102.4501       59.149595      93.837323      568643.11      4.4741794    
     36000   36                 32000   297.8763      -220.64994     -1672.7061     -1529.7829      2540.5392     -154675.24      102.44842      59.148622      93.83578       568615.06      4.4744002    
     37000   37                 32000   298.24733     -178.71626     -1502.2932     -1575.1689      2541.3134     -154679.35      102.44614      59.147305      93.833691      568577.09      4.474699     
     38000   38                 32000   298.57294     -14.815283     -1328.0812     -1400.4583      2684.0937     -154671.96      102.44313      59.145568      93.830936      568527         4.4750932    
     39000   39                 32000   302.01366      411.50133     -882.79636     -1025.6168      3142.9171     -154657.66      102.43267      59.139528      93.821353      568352.82      4.4764646    
     40000   40                 32000   300.14976      456.37635     -916.23941     -907.14317      3192.5116     -154682.28      102.4261       59.135738      93.815341      568243.58      4.4773252    
     41000   41                 32000   302.09603      277.85328     -1002.8215     -1182.2371      3018.6185     -154676.14      102.43361      59.14007       93.822213      568368.46      4.4763415    
     42000   42                 32000   298.9307       140.58679     -1261.0028     -1179.1437      2861.9069     -154658.95      102.44049      59.144044      93.828517      568483.04      4.4754393    
     43000   43                 32000   300.03206     -140.82552     -1645.7626     -1389.0155      2612.3015     -154672.14      102.44743      59.148051      93.834874      568598.6       4.4745297    
     44000   44                 32000   302.33154     -704.2257      -2081.5006     -2025.5404      1994.3639     -154675.93      102.4647       59.158022      93.850693      568886.21      4.4722675    
     45000   45                 32000   298.20352     -594.01213     -1955.6184     -1998.3665      2171.9485     -154681.77      102.45954      59.155043      93.845967      568800.26      4.4729433    
     46000   46                 32000   300.55531     -204.28873     -1522.1904     -1574.1989      2483.5231     -154677.69      102.44822      59.148506      93.835597      568611.73      4.4744264    
     47000   47                 32000   301.11344     -100.67532     -1367.3943     -1525.762       2591.1303     -154675.15      102.44495      59.146619      93.832602      568557.28      4.4748548    
     48000   48                 32000   299.70713      62.384243     -1292.0122     -1273.8286      2752.9936     -154675.53      102.43877      59.143051      93.826942      568454.4       4.4756647    
     49000   49                 32000   301.08824      294.5876      -1098.604      -1045.263       3027.6298     -154675.84      102.43204      59.139168      93.820782      568342.46      4.4765463    
     50000   50                 32000   300.34985      526.43216     -876.79255     -742.51451      3198.6035     -154671.46      102.42536      59.135312      93.814664      568231.28      4.4774221    
     51000   51                 32000   300.23091      444.47261     -888.88614     -935.36031      3157.6643     -154679.86      102.42762      59.136612      93.816726      568268.75      4.4771269    
     52000   52                 32000   302.65986      123.71519     -1181.1651     -1286.0009      2838.3115     -154670.01      102.43917      59.14328       93.827306      568461.02      4.4756126    
     53000   53                 32000   299.99131     -71.975824     -1359.1919     -1463.1729      2606.4373     -154667.1       102.44614      59.147308      93.833695      568577.16      4.4746984    
     54000   54                 32000   297.95183     -108.96608     -1476.3229     -1431.332       2580.7566     -154667.22      102.44685      59.147719      93.834347      568589.01      4.4746052    
     55000   55                 32000   298.41013     -223.4371      -1598.1406     -1599.0755      2526.9049     -154660.63      102.45213      59.150764      93.839178      568676.83      4.4739142    
     56000   56                 32000   298.62413     -271.88155     -1654.6867     -1629.5769      2468.6189     -154670.32      102.45165      59.150488      93.83874       568668.87      4.4739767    
     57000   57                 32000   300.43395     -73.274334     -1374.2944     -1454.9045      2609.3759     -154667.93      102.44587      59.147153      93.833449      568572.69      4.4747336    
     58000   58                 32000   300.50759      175.32521     -1114.4315     -1254.8887      2895.2958     -154672.94      102.43676      59.141889      93.825098      568420.89      4.4759286    
     59000   59                 32000   299.62178      190.53406     -1116.1848     -1233.7728      2921.5598     -154664.44      102.43788      59.142536      93.826124      568439.55      4.4757817    
     60000   60                 32000   304.35702      6.7248695     -1341.2468     -1348.6912      2710.1126     -154672.76      102.44342      59.145734      93.831199      568531.78      4.4750556    
     61000   61                 32000   300.41551      51.892938     -1319.6992     -1310.581       2785.959      -154676.04      102.4404       59.143994      93.828438      568481.6       4.4754506    
     62000   62                 32000   300.73191      85.808786     -1358.6394     -1246.4706      2862.5364     -154666.3       102.44091      59.144288      93.828905      568490.09      4.4753838    
     63000   63                 32000   297.72193     -88.504081     -1528.6052     -1364.441       2627.534      -154670.25      102.44549      59.146931      93.833097      568566.29      4.474784     
     64000   64                 32000   302.00237     -367.55926     -1703.9955     -1652.0257      2253.3435     -154662.73      102.45804      59.154179      93.844595      568775.33      4.4731394    
     65000   65                 32000   299.95299     -578.50108     -1896.581      -1933.6603      2094.7381     -154675.39      102.4604       59.155538      93.846752      568814.54      4.472831     
     66000   66                 32000   299.2942      -288.36805     -1597.09       -1698.1634      2430.1493     -154669.03      102.45159      59.150453      93.838685      568667.88      4.4739846    
     67000   67                 32000   300.2125      -61.701567     -1438.8785     -1420.7113      2674.4851     -154678.72      102.44287      59.14542       93.8307        568522.72      4.4751269    
     68000   68                 32000   299.43315      68.40576      -1335.3491     -1278.4755      2819.0419     -154667.91      102.44099      59.144332      93.828974      568491.35      4.4753738    
     69000   69                 32000   300.83766      167.55791     -1264.1594     -1152.8495      2919.6826     -154673.59      102.4375       59.142317      93.825778      568433.25      4.4758313    
     70000   70                 32000   300.46644      584.87646     -746.8646      -813.08696      3314.5809     -154678.37      102.42331      59.134125      93.812782      568197.08      4.4776916    
     71000   71                 32000   300.83097      317.57209     -1072.6681     -1001.2523      3026.6366     -154666.1       102.43383      59.140198      93.822416      568372.15      4.4763124    
     72000   72                 32000   299.21355     -43.87487      -1331.5299     -1424.5969      2624.5022     -154673.16      102.44372      59.145908      93.831474      568536.78      4.4750162    
     73000   73                 32000   298.16905     -126.25449     -1374.172      -1504.6647      2500.0733     -154669.8       102.44713      59.147876      93.834597      568593.56      4.4745693    
     74000   74                 32000   299.96055     -271.88217     -1583.8805     -1647.9116      2416.1455     -154673.45      102.4506       59.149879      93.837775      568651.32      4.4741148    
     75000   75                 32000   299.44115     -393.05661     -1716.1444     -1698.573       2235.5476     -154679.32      102.45403      59.151859      93.840916      568708.42      4.4736656    
     76000   76                 32000   301.27444     -405.04731     -1760.6531     -1733.8138      2279.325      -154677.38      102.45491      59.15237       93.841726      568723.17      4.4735496    
     77000   77                 32000   300.4714       91.647928     -1208.445      -1285.8144      2769.2031     -154666.97      102.44156      59.144663      93.829499      568500.88      4.4752988    
     78000   78                 32000   298.7298       279.65242     -1088.3863     -1031.9111      2959.2546     -154671.28      102.43467      59.140683      93.823185      568386.13      4.4762023    
     79000   79                 32000   302.01392      316.86999     -1119.3661     -976.23341      3046.2095     -154665.4       102.43485      59.140787      93.823351      568389.14      4.4761786    
     80000   80                 32000   300.36484      319.21628     -1089.5459     -947.68832      2994.8831     -154679.01      102.43268      59.139538      93.821369      568353.12      4.4764623    
     81000   81                 32000   300.09908      155.87905     -1151.2393     -1205.7639      2824.6404     -154666.46      102.4393       59.143359      93.82743       568463.28      4.4755948    
     82000   82                 32000   298.98798     -329.15442     -1649.9587     -1681.4577      2343.9532     -154689.86      102.44967      59.149344      93.836926      568635.89      4.4742363    
     83000   83                 32000   299.03429     -496.77968     -1793.3286     -1866.0913      2169.0808     -154667.06      102.45985      59.155221      93.846248      568805.38      4.472903     
     84000   84                 32000   297.0888      -311.04033     -1683.6389     -1659.3003      2409.8183     -154686.17      102.44943      59.149205      93.836705      568631.87      4.4742679    
     85000   85                 32000   300.5536      -280.8533      -1597.3834     -1645.7737      2400.5972     -154666.66      102.45266      59.151071      93.839665      568685.68      4.4738445    
     86000   86                 32000   298.30229     -122.40657     -1561.5039     -1446.5014      2640.7856     -154670.65      102.44598      59.147213      93.833544      568574.41      4.47472      
     87000   87                 32000   299.47603      204.66752     -1219.3416     -1102.5021      2935.8463     -154666.55      102.43687      59.141957      93.825206      568422.86      4.4759131    
     88000   88                 32000   298.11652      732.98511     -678.06366     -635.37272      3512.3917     -154674.89      102.41843      59.131308      93.808313      568115.88      4.4783317    
     89000   89                 32000   299.29317      396.45586     -975.52789     -975.11183      3140.0073     -154671.93      102.43005      59.138019      93.818959      568309.32      4.4768073    
     90000   90                 32000   302.73865      215.61738     -1086.957      -1222.4889      2956.298      -154668.94      102.43723      59.142164      93.825534      568428.83      4.4758661    
     91000   91                 32000   300.17253      78.489344     -1322.2751     -1265.8331      2823.5762     -154669.94      102.4405       59.14405       93.828527      568483.22      4.4754378    
     92000   92                 32000   297.59937     -94.799322     -1454.973      -1449.9183      2620.4933     -154670.8       102.44526      59.146798      93.832886      568562.45      4.4748141    
     93000   93                 32000   299.0674      -626.48498     -1955.7754     -2043.7348      2120.0552     -154667.69      102.46319      59.157151      93.849311      568861.08      4.472465     
     94000   94                 32000   299.09881     -440.9061      -1835.6944     -1765.298       2278.274      -154676.12      102.45596      59.152977      93.842689      568740.67      4.4734119    
     95000   95                 32000   301.80213     -130.72209     -1578.8872     -1439.837       2626.5579     -154671.72      102.44713      59.14788       93.834603      568593.67      4.4745685    
     96000   96                 32000   300.44916     -42.542096     -1474.98       -1302.1279      2649.4817     -154681.53      102.44229      59.145083      93.830166      568513.01      4.4752034    
     97000   97                 32000   300.64877      136.48029     -1232.3563     -1235.8565      2877.6536     -154668.26      102.4391       59.143243      93.827246      568459.94      4.4756211    
     98000   98                 32000   299.22093      499.0488      -841.4246      -887.85541      3226.4264     -154669.11      102.42668      59.136069      93.815865      568253.11      4.4772501    
     99000   99                 32000   300.14252      564.07443     -816.12987     -845.60938      3353.9625     -154665.52      102.42568      59.135493      93.814952      568236.52      4.4773809    
    100000   100                32000   300.41645      360.1898      -1064.1975     -951.39172      3096.1586     -154666.91      102.43237      59.139355      93.821079      568347.85      4.4765038    
Loop time of 2122.21 on 1 procs for 100000 steps with 32000 atoms

Performance: 4.071 ns/day, 5.895 hours/ns, 47.121 timesteps/s, 1.508 Matom-step/s
97.6% CPU use with 1 MPI tasks x 1 OpenMP threads

MPI task timing breakdown:
Section |  min time  |  avg time  |  max time  |%varavg| %total
---------------------------------------------------------------
Pair    | 2036       | 2036       | 2036       |   0.0 | 95.94
Neigh   | 0          | 0          | 0          |   0.0 |  0.00
Comm    | 16.021     | 16.021     | 16.021     |   0.0 |  0.75
Output  | 0.033729   | 0.033729   | 0.033729   |   0.0 |  0.00
Modify  | 61.821     | 61.821     | 61.821     |   0.0 |  2.91
Other   |            | 8.324      |            |       |  0.39

Nlocal:          32000 ave       32000 max       32000 min
Histogram: 1 0 0 0 0 0 0 0 0 0
Nghost:          17613 ave       17613 max       17613 min
Histogram: 1 0 0 0 0 0 0 0 0 0
Neighs:      1.088e+06 ave   1.088e+06 max   1.088e+06 min
Histogram: 1 0 0 0 0 0 0 0 0 0
FullNghs:    2.176e+06 ave   2.176e+06 max   2.176e+06 min
Histogram: 1 0 0 0 0 0 0 0 0 0

Total # of neighbors = 2176000
Ave neighs/atom = 68
Neighbor list builds = 0
Dangerous builds = 0
System init for write_data ...
System init for write_restart ...
WARNING: No fixes with time integration, atoms won't move
For more information see https://docs.lammps.org/err0028 (src/verlet.cpp:60)
Setting up Verlet run ...
  Unit style    : metal
  Current step  : 0
  Time step     : 0.001
Per MPI rank memory allocation (min/avg/max) = 52.57 | 52.57 | 52.57 Mbytes
   Step          Time         Atoms         Temp          Press           Pxx            Pyy            Pzz           PotEng           Lx             Ly             Lz           Volume        Density    
         0   0                  32000   300.41645      360.1898      -1064.1975     -951.39172      3096.1586     -154666.91      102.43237      59.139355      93.821079      568347.85      4.4765038    
Loop time of 0.000312185 on 1 procs for 0 steps with 32000 atoms

WARNING: New thermo_style command, previous thermo_modify settings will be lost (src/output.cpp:912)
Setting up Verlet run ...
  Unit style    : metal
  Current step  : 0
  Time step     : 0.001
Per MPI rank memory allocation (min/avg/max) = 52.57 | 52.57 | 52.57 Mbytes
   Step          Time           Temp          Press           Pxx            Pyy            Pzz           PotEng           Lx             Ly             Lz           Volume        Density        v_strain       v_sigzz    
         0   0              300.41645      360.1898      -1064.1975     -951.39172      3096.1586     -154666.91      102.43237      59.139355      93.821079      568347.85      4.4765038      1.5146761e-16  0.30961586   
      1000   1              299.34484      1395.9477     -294.24508     -357.97625      4840.0644     -154676.87      102.42408      59.143689      93.727258      567775.19      4.4810188      0.001          0.48400644   
      2000   2              301.04595      2219.2715      143.4103      -31.83437       6546.2385     -154670.13      102.4313       59.157617      93.633437      567380.4       4.4841368      0.002          0.65462385   
      3000   3              300.81358      2902.4996      368.49366      360.47972      7978.5253     -154676.73      102.4608       59.160672      93.539616      567004.41      4.4871103      0.003          0.79785253   
      4000   4              298.80546      3577.4853      611.95653      664.38593      9456.1133     -154678.97      102.4913       59.168025      93.445795      566674.72      4.4897208      0.004          0.94561133   
      5000   5              299.77177      3690.5747      238.28013      183.81945      10649.624     -154664.41      102.53463      59.202105      93.351974      566671.3       4.4897479      0.005          1.0649624    
      6000   6              300.33298      3823.9877     -221.18942     -70.521864      11763.675     -154668.1       102.58635      59.226051      93.258153      566616.41      4.4901829      0.006          1.1763675    
      7000   7              299.8398       4212.6307     -207.47346     -308.28818      13153.654     -154664.14      102.60805      59.254877      93.164331      566441.7       4.4915678      0.007          1.3153654    
      8000   8              299.47804      4711.335      -171.73234     -251.65158      14557.389     -154655.71      102.64998      59.266924      93.07051       566217.59      4.4933456      0.008          1.4557389    
      9000   9              300.35714      5255.4402     -236.64915      55.280635      15947.689     -154658.83      102.69223      59.272419      92.976689      565932.05      4.4956127      0.009          1.5947689    
     10000   10             301.6928       6155.1063      420.56741      425.27323      17619.478     -154666.25      102.68658      59.287532      92.882868      565474.02      4.4992541      0.01           1.7619478    
     11000   11             301.69945      6660.4456      528.48246      341.94816      19110.906     -154655.66      102.7025       59.314613      92.789047      565248.51      4.5010491      0.011          1.9110906    
     12000   12             298.46031      7011.8097      459.37301      272.7579       20303.298     -154643.55      102.74503      59.335738      92.695226      565112         4.5021364      0.012          2.0303298    
     13000   13             297.88475      7218.8203      254.99023     -133.54636      21535.017     -154637.23      102.78288      59.365018      92.601405      565026.68      4.5028162      0.013          2.1535017    
     14000   14             302.17368      7163.9894     -197.87076     -831.03914      22520.878     -154637.96      102.82722      59.406018      92.507584      565087.75      4.5023296      0.014          2.2520878    
     15000   15             299.9849       7541.9044     -516.8585      -669.176        23811.748     -154628.91      102.88227      59.418513      92.413763      564935.65      4.5035418      0.015          2.3811748    
     16000   16             300.12669      8300.5998     -349.18314     -207.91199      25458.895     -154612.75      102.93006      59.41652       92.319942      564605.33      4.5061766      0.016          2.5458895    
     17000   17             298.56153      8866.9982     -306.0077       10.636778      26896.366     -154609.19      102.96262      59.427087      92.226121      564310.28      4.5085326      0.017          2.6896366    
     18000   18             300.9661       9445.9845     -236.99805      202.78775      28372.164     -154609.74      103.00277      59.437505      92.1323        564054.88      4.510574       0.018          2.8372164    
     19000   19             300.09387      10243.443      133.6878       570.20912      30026.431     -154589.84      103.01722      59.45278       92.038479      563704.37      4.5133787      0.019          3.0026431    
     20000   20             300.35088      10729.798      463.30133      286.01953      31440.074     -154591.54      103.02276      59.485889      91.944657      563473.66      4.5152267      0.02           3.1440074    
     21000   21             300.2495       11105.091      244.39182      327.58136      32743.3       -154564.07      103.07084      59.508463      91.850836      563375.13      4.5160164      0.021          3.27433      
     22000   22             298.0117       11487.724      355.94135      57.410941      34049.819     -154563.89      103.08914      59.538136      91.757015      563180.25      4.5175791      0.022          3.4049819    
     23000   23             302.7393       11922.493      512.99463     -178.37124      35432.857     -154550.81      103.10811      59.57238       91.663194      563031.61      4.5187717      0.023          3.5432857    
     24000   24             300.95349      12288.027      512.92922     -401.72742      36752.879     -154544.82      103.13391      59.601322      91.569373      562869.36      4.5200743      0.024          3.6752879    
     25000   25             300.2442       12627.237      28.266099     -137.2731       37990.717     -154540.77      103.21114      59.601963      91.475552      562719.79      4.5212757      0.025          3.7990717    
     26000   26             300.40955      13030.403      25.103357     -258.10637      39324.212     -154511.68      103.24799      59.630135      91.381731      562609.11      4.5221652      0.026          3.9324212    
     27000   27             297.16742      13221.281     -421.08895     -433.39773      40518.33      -154504.57      103.30849      59.648548      91.28791       562534.5       4.5227649      0.027          4.051833     
     28000   28             298.60386      13628.156     -535.76658     -360.3426       41780.577     -154487.05      103.36002      59.66501       91.194089      562391.83      4.5239123      0.028          4.1780577    
     29000   29             300.91242      14269.426     -469.88499     -66.9945        43345.157     -154464.46      103.4041       59.675834      91.100268      562154.78      4.52582        0.029          4.3345157    
     30000   30             301.44884      14729.736     -441.86048     -98.153846      44729.221     -154466.4       103.44205      59.69263       91.006447      561940.06      4.5275493      0.03           4.4729221    
     31000   31             300.5931       15241.594     -499.67967      75.022543      46149.44      -154437.37      103.4821       59.713296      90.912626      561772.5       4.5288997      0.031          4.614944     
     32000   32             299.66738      15843.401     -333.75284      221.872        47642.082     -154428.34      103.50663      59.730868      90.818804      561490.97      4.5311705      0.032          4.7642082    
     33000   33             299.21676      16529.097      207.35442      163.66711      49216.27      -154419.06      103.50574      59.761124      90.724983      561190.23      4.5335988      0.033          4.921627     
     34000   34             298.7586       16978.296      121.74581      262.21236      50550.928     -154394.4       103.54739      59.783855      90.631162      561048.77      4.5347418      0.034          5.0550928    
     35000   35             299.54308      17438.102      249.502        124.2441       51940.561     -154375.77      103.57049      59.813713      90.537341      560873.01      4.5361629      0.035          5.1940561    
     36000   36             300.84702      18193.181      688.10589      292.7964       53598.64      -154365.86      103.58087      59.834451      90.44352       560542.22      4.5388398      0.036          5.359864     
     37000   37             302.71047      18754.982      713.65642      515.69267      55035.598     -154340.51      103.62512      59.849816      90.349699      560343.84      4.5404467      0.037          5.5035598    
     38000   38             300.28061      19117.427      460.05529      575.66811      56316.557     -154318.78      103.6816       59.867695      90.255878      560234.35      4.541334       0.038          5.6316557    
     39000   39             299.57464      19524.711      550.11225      382.08882      57641.932     -154307.87      103.71864      59.892929      90.162057      560087.9       4.5425215      0.039          5.7641932    
     40000   40             300.10406      19999.639      544.45026      470.12926      58984.337     -154284.81      103.76009      59.914252      90.068236      559927.93      4.5438193      0.04           5.8984337    
     41000   41             300.64803      20425.47       416.58777      520.11395      60339.707     -154268.38      103.80317      59.935077      89.974415      559771.41      4.5450898      0.041          6.0339707    
     42000   42             300.38537      20793.743      471.05371      300.91251      61609.264     -154247.01      103.8474       59.960045      89.880594      559659.03      4.5460025      0.042          6.1609264    
     43000   43             299.68785      21259.081      442.58951      331.69182      63002.96      -154216.51      103.89111      59.981722      89.786773      559512.34      4.5471942      0.043          6.300296     
     44000   44             300.41375      21938.775      546.84134      727.15602      64542.329     -154200.76      103.93382      59.990928      89.692952      559243.3       4.5493819      0.044          6.4542329    
     45000   45             298.06868      22161.538      328.3873       472.91399      65683.313     -154181.27      103.97108      60.025663      89.59913       559182.15      4.5498793      0.045          6.5683313    
     46000   46             300.27522      22413.645      163.47044      238.68655      66838.778     -154152.79      104.01562      60.061609      89.505309      559170.58      4.5499735      0.046          6.6838778    
     47000   47             299.60387      22822.504      396.65355     -81.161312      68152.018     -154143.26      104.04904      60.087062      89.411488      559000.75      4.5513558      0.047          6.8152018    
     48000   48             298.45691      23332.202      389.46914      43.592325      69563.543     -154104.35      104.08795      60.111341      89.317667      558848.68      4.5525943      0.048          6.9563543    
     49000   49             298.90999      23833.028      300.24711      224.22033      70974.616     -154073.71      104.13382      60.131555      89.223846      558695.52      4.5538424      0.049          7.0974616    
     50000   50             299.19423      24289.792      17.922733      497.05093      72354.403     -154052.99      104.19904      60.140245      89.130025      558538.29      4.5551243      0.05           7.2354403    
     51000   51             302.37962      24589.261     -28.612304      228.54849      73567.846     -154037.04      104.23107      60.176249      89.036204      558455.98      4.5557957      0.051          7.3567846    
     52000   52             301.70496      25140.615      463.38219      19.233732      74939.23      -154008.1       104.24399      60.212643      88.942383      558274.13      4.5572796      0.052          7.493923     
     53000   53             299.2362       25781.482      644.21114      273.42816      76426.806     -153965.1       104.2837       60.232842      88.848562      558084.82      4.5588255      0.053          7.6426806    
     54000   54             301.33852      26255.944      720.94172      288.98818      77757.902     -153956.84      104.32927      60.247945      88.754741      557878.95      4.5605078      0.054          7.7757902    
     55000   55             300.6085       26568.613      492.9208       244.32937      78968.59      -153917.04      104.38993      60.271697      88.66092       557833.09      4.5608827      0.055          7.896859     
     56000   56             298.88153      26996.294      455.0533       279.14368      80254.686     -153893.31      104.43391      60.295533      88.567099      557697.99      4.5619876      0.056          8.0254686    
     57000   57             299.24309      27405.048      418.80649      271.02027      81525.316     -153871.63      104.47865      60.320757      88.473278      557579.07      4.5629606      0.057          8.1525316    
     58000   58             299.54653      28242.828      605.68253      916.51962      83206.281     -153839.58      104.53379      60.318558      88.379456      557261.44      4.5655614      0.058          8.3206281    
     59000   59             304.76199      28270.38       248.00998      447.10103      84116.03      -153798.24      104.59467      60.362395      88.285635      557398.84      4.5644359      0.059          8.411603     
     60000   60             298.55266      28674.79       385.3813       227.83366      85411.155     -153772.08      104.61282      60.399044      88.191814      557241.27      4.5657266      0.06           8.5411155    
     61000   61             301.39243      29115.477      460.22874      197.83427      86688.367     -153734.67      104.65709      60.428071      88.097993      557151.63      4.5664612      0.061          8.6688367    
     62000   62             300.78551      29552.469      444.50269      232.95834      87979.947     -153711.08      104.69689      60.455289      88.004172      557020.73      4.5675343      0.062          8.7979947    
     63000   63             297.57028      29828.756      320.80345     -2.4570326      89167.923     -153685.37      104.73782      60.487724      87.910351      556943.03      4.5681716      0.063          8.9167923    
     64000   64             299.07488      30203.16       271.80383     -11.02488       90348.701     -153638.04      104.79346      60.516713      87.81653       556911         4.5684343      0.064          9.0348701    
     65000   65             298.16167      30623.088      256.01216     -56.416754      91669.669     -153614.88      104.83388      60.542017      87.722709      556763.26      4.5696465      0.065          9.1669669    
     66000   66             299.38317      30979.209      299.86049     -164.78496      92802.55      -153570.09      104.85838      60.588581      87.628888      556725.64      4.5699554      0.066          9.280255     
     67000   67             298.68477      31173.658      32.475872     -429.71395      93918.212     -153553.89      104.91755      60.614711      87.535067      556683.36      4.5703024      0.067          9.3918212    
     68000   68             301.22051      31592.066     -215.47079     -143.60378      95135.273     -153511.82      104.9976       60.626236      87.441246      556616.81      4.5708488      0.068          9.5135273    
     69000   69             299.32661      31976.431     -275.83674     -146.34636      96351.478     -153466.16      105.06236      60.646083      87.347425      556544.66      4.5714414      0.069          9.6351478    
     70000   70             300.20312      32279.48      -152.26391     -458.67944      97449.384     -153438.12      105.09347      60.687928      87.253603      556495.2       4.5718477      0.07           9.7449384    
     71000   71             299.95129      32647.653     -108.13495     -611.25633      98662.352     -153398.55      105.13359      60.72225       87.159782      556423.5       4.5724368      0.071          9.8662352    
     72000   72             298.97659      33293.088      48.072325     -219.80913      100051        -153366.41      105.17496      60.7406        87.065961      556211.35      4.5741809      0.072          10.0051      
     73000   73             301.90974      33791.309     -124.18954      34.783628      101463.33     -153338.76      105.23172      60.756867      86.97214       556060.71      4.57542        0.073          10.146333    
     74000   74             298.82718      34437.064      372.46105      117.27447      102821.46     -153290.84      105.24489      60.792042      86.878319      555851.99      4.5771381      0.074          10.282146    
     75000   75             301.30832      35244.673      1001.5698      186.20923      104546.24     -153255.96      105.25124      60.823636      86.784498      555573.78      4.5794301      0.075          10.454624    
     76000   76             298.47391      35347.884      616.94758      100.71423      105325.99     -153217.29      105.33475      60.846655      86.690677      555623.72      4.5790185      0.076          10.532599    
     77000   77             300.5861       35496.031      213.16935     -94.489368      106369.41     -153176.8       105.40933      60.875315      86.596856      555676.96      4.5785798      0.077          10.636941    
     78000   78             301.44484      35741.989     -75.982089     -111.65284      107413.6      -153135.45      105.48567      60.897882      86.503035      555682.88      4.5785311      0.078          10.74136     
     79000   79             298.83374      35794.762     -508.05629     -302.84568      108195.19     -153096.6       105.5612       60.928648      86.409214      555758.25      4.5779101      0.079          10.819519    
     80000   80             300.19004      36082.046     -775.49475     -308.45743      109330.09     -153049.03      105.63201      60.953496      86.315393      555753.78      4.5779469      0.08           10.933009    
     81000   81             298.49905      36701.711     -496.59593     -104.84827      110706.58     -153013.88      105.66892      60.976457      86.221572      555552.84      4.5796027      0.081          11.070658    
     82000   82             300.70939      37247.569     -514.58931      226.59763      112030.7      -152964.27      105.72529      60.997547      86.127751      555436.44      4.5805624      0.082          11.20307     
     83000   83             299.72473      37856.461     -30.752395      192.32185      113407.81     -152930.2       105.73834      61.034193      86.033929      555233.23      4.5822389      0.083          11.340781    
     84000   84             298.6712       38463.481      469.92935      162.45957      114758.06     -152892.43      105.75169      61.071787      85.940108      555039.44      4.5838388      0.084          11.475806    
     85000   85             301.14969      39298.11       785.46816      689.60251      116419.26     -152841.02      105.77293      61.099574      85.846287      554797.19      4.5858403      0.085          11.641926    
     86000   86             299.97625      39248.035      597.21948      95.504462      117051.38     -152795.43      105.8392       61.145104      85.752466      554951.27      4.584567       0.086          11.705138    
     87000   87             297.13254      39216.354      85.672539     -213.51243      117776.9      -152760.46      105.9231       61.17433       85.658645      555048.7       4.5837623      0.087          11.77769     
     88000   88             300.03147      39403.691     -423.39062     -124.88299      118759.35     -152710.24      106.00747      61.199015      85.564824      555106.3       4.5832867      0.088          11.875935    
     89000   89             297.83983      39950.007      7.0650226     -161.9137       120004.87     -152658.87      106.05295      61.224937      85.471003      554970.49      4.5844083      0.089          12.000487    
     90000   90             299.58133      40590.491     -161.21738      490.14995      121442.54     -152617.87      106.1154       61.235957      85.377182      554787.59      4.5859197      0.09           12.144254    
     91000   91             298.50401      41211.764      252.84802      606.28736      122776.16     -152571.47      106.17286      61.2496        85.283361      554601.56      4.587458       0.091          12.277616    
     92000   92             301.02009      41258.519     -113.53978      376.05145      123513.04     -152536.21      106.21787      61.301018      85.18954       554691.54      4.5867137      0.092          12.351304    
     93000   93             298.43396      41421.453      10.049576     -139.69561      124394.01     -152484.16      106.2478       61.356773      85.095719      554740.88      4.5863058      0.093          12.439401    
     94000   94             299.47829      41558.576     -16.37937      -545.46115      125237.57     -152429.07      106.29221      61.409585      85.001898      554838.06      4.5855025      0.094          12.523757    
     95000   95             300.06244      41938.785     -151.402       -338.0538       126305.81     -152379.18      106.36375      61.43114       84.908077      554793.3       4.5858724      0.095          12.630581    
     96000   96             299.6561       42623.081      151.29992      34.572455      127683.37     -152340.09      106.41718      61.44169       84.814255      554553.88      4.5878523      0.096          12.768337    
     97000   97             299.84648      43601.293      592.87019      807.59427      129403.41     -152273.59      106.46321      61.45049       84.720434      554259.43      4.5902897      0.097          12.940341    
     98000   98             300.16224      43644.299      435.97574      330.86875      130166.05     -152240.39      106.50205      61.503931      84.626613      554329.26      4.5897113      0.098          13.016605    
     99000   99             300.45046      43392.203     -367.34943     -61.908468      130605.87     -152176.62      106.61685      61.539433      84.532792      554631.52      4.5872101      0.099          13.060587    
    100000   100            298.24823      43655.809     -372.25192     -174.32392      131514        -152134.86      106.66194      61.580154      84.438971      554616.99      4.5873303      0.1            13.1514      
    101000   101            299.71291      44096.551     -67.109268     -254.78165      132611.54     -152086.51      106.72904      61.601179      84.34515       554538.53      4.5879793      0.101          13.261154    
    102000   102            299.48529      45020.753      29.137577      858.98427      134174.14     -152029.73      106.77463      61.609762      84.251329      554235.51      4.5904877      0.102          13.417414    
    103000   103            300.43318      45137.761      263.34326      201.60167      134948.34     -151990.28      106.8189       61.66042       84.157508      554303.3       4.5899263      0.103          13.494834    
    104000   104            300.60058      45274.079     -69.818624      94.918517      135797.14     -151930.69      106.90063      61.692649      84.063687      554398.57      4.5891376      0.104          13.579714    
    105000   105            299.59247      45367.083     -426.82889      91.309132      136436.77     -151891.73      106.95447      61.735649      83.969866      554444.94      4.5887538      0.105          13.643677    
    106000   106            299.24352      45578.268      136.19875     -691.14489      137289.75     -151820.03      106.97457      61.804409      83.876045      554546.47      4.5879136      0.106          13.728975    
    107000   107            299.3194       46305.683      478.28656     -223.61803      138662.38     -151769.12      106.99918      61.834819      83.782224      554326.24      4.5897364      0.107          13.866238    
    108000   108            299.67838      46796.963      281.18652      325.25992      139784.44     -151712.47      107.08561      61.843925      83.688402      554234.36      4.5904973      0.108          13.978444    
    109000   109            299.85734      46884.54      -18.324581      217.79264      140454.15     -151659.45      107.19338      61.860851      83.594581      554321.82      4.589773       0.109          14.045415    
    110000   110            301.13439      47000.612     -371.01022      153.19562      141219.65     -151609.5       107.27792      61.892808      83.50076       554422.64      4.5889384      0.11           14.121965    
    111000   111            297.95108      47304.257      127.05245     -302.67613      142088.39     -151547.87      107.27302      61.965688      83.406939      554426.5       4.5889064      0.111          14.208839    
    112000   112            301.29086      47596.739      130.641       -311.92711      142971.5      -151506.23      107.34243      61.99331       83.313118      554408.2       4.5890579      0.112          14.29715     
    113000   113            300.33753      48004.926     -438.34665      488.0857       143965.04     -151443.56      107.47001      61.985333      83.219297      554370.68      4.5893684      0.113          14.396504    
    114000   114            300.54872      48194.806     -143.91556      76.955058      144651.38     -151389.21      107.49243      62.04757       83.125476      554417.34      4.5889822      0.114          14.465138    
    115000   115            300.02454      48525.635      423.41648     -418.05067      145571.54     -151329.23      107.48689      62.120502      83.031655      554413.93      4.5890105      0.115          14.557154    
    116000   116            297.6651       48935.348      381.6768      -160.1657       146584.53     -151266.22      107.56369      62.140179      82.937834      554358.73      4.5894674      0.116          14.658453    
    117000   117            301.99305      49182.769      36.878908      121.87344      147389.55     -151210         107.66959      62.157063      82.844013      554427.36      4.5888993      0.117          14.738955    
    118000   118            298.97996      49275.047     -233.88508      87.411645      147971.61     -151156.45      107.75871      62.184783      82.750192      554505.07      4.5882561      0.118          14.797161    
    119000   119            300.46396      49420.927     -374.15737     -29.51535       148666.45     -151090.54      107.83773      62.22162       82.656371      554610.89      4.5873807      0.119          14.866645    
    120000   120            299.88784      50094.068      249.39921      186.59686      149846.21     -151041.13      107.85813      62.259124      82.56255       554420.14      4.5889591      0.12           14.984621    
    121000   121            300.70339      50421          621.19501     -87.923093      150729.73     -150978.48      107.84991      62.333985      82.468728      554413.76      4.5890119      0.121          15.072973    
    122000   122            301.55303      50264.432     -289.66877     -5.9235489      151088.89     -150915.78      108.00121      62.345724      82.374907      554664.34      4.5869386      0.122          15.108889    
    123000   123            300.93533      50538.785     -475.58623      315.99027      151775.95     -150855.8       108.08271      62.371051      82.281086      554675.91      4.586843       0.123          15.177595    
    124000   124            302.47088      51038.3       -111.76564      433.7607       152792.9      -150793.11      108.13511      62.403629      82.187265      554601.57      4.5874578      0.124          15.27929     
    125000   125            297.68224      51342.508      69.237744      299.04092      153659.25     -150729.12      108.18189      62.447941      82.093444      554601.65      4.5874572      0.125          15.365925    
    126000   126            300.67609      51072.969     -75.709786     -485.81157      153780.43     -150666.8       108.23704      62.521255      81.999623      554900.94      4.5849829      0.126          15.378043    
    127000   127            300.38614      51508.167      5.0978289     -197.37037      154716.77     -150607.21      108.30251      62.549345      81.905802      554850.48      4.5853998      0.127          15.471677    
    128000   128            298.6546       52508.134      304.22011      968.12187      156252.06     -150547.07      108.39114      62.530985      81.811981      554505.64      4.5882515      0.128          15.625206    
    129000   129            303.71426      52057.177     -147.09496      79.003094      156239.62     -150490.77      108.48167      62.595671      81.71816       554905.78      4.5849429      0.129          15.623962    
    130000   130            300.96375      52047.989     -243.39536     -179.22624      156566.59     -150431.12      108.5225       62.659223      81.624339      555040.24      4.5838321      0.13           15.656659    
    131000   131            301.57665      52776.366      291.8525       185.30393      157851.94     -150365.6       108.55033      62.695604      81.530518      554866.42      4.5852681      0.131          15.785194    
    132000   132            300.54256      52713.992      289.78714     -251.83521      158104.02     -150296.49      108.59527      62.762127      81.436697      555045.67      4.5837873      0.132          15.810402    
    133000   133            297.76463      52650.684     -350.68106     -135.59781      158438.33     -150241.43      108.75215      62.763943      81.342876      555223.21      4.5823216      0.133          15.843833    
    134000   134            301.11959      53181.199      143.15163     -27.834727      159428.28     -150165.41      108.78293      62.812737      81.249054      555171.02      4.5827524      0.134          15.942828    
    135000   135            301.64467      53325.801     -147.90743      129.01252      159996.3      -150111.88      108.86876      62.843844      81.155233      555242.3       4.5821641      0.135          15.99963     
    136000   136            301.919        53424.55      -73.092485     -59.518325      160406.26     -150037.66      108.92182      62.900938      81.061412      555374.79      4.5810709      0.136          16.040626    
    137000   137            297.7295       53806.816      286.46098     -57.420493      161191.41     -149975.83      108.96927      62.941711      80.967591      555333.44      4.5814121      0.137          16.119141    
    138000   138            300.35487      53796.889     -254.69591      105.39109      161539.97     -149906.33      109.10732      62.956532      80.87377       555523.44      4.5798452      0.138          16.153997    
    139000   139            299.87602      53835.273     -301.65791     -72.92698       161880.4      -149846.05      109.14847      63.022163      80.779949      555666.9       4.5786627      0.139          16.18804     
    140000   140            300.86906      54356.846      232.99256      78.010029      162759.54     -149765.06      109.17413      63.074223      80.686128      555610.61      4.5791266      0.14           16.275954    
    141000   141            299.03722      54341.456     -217.94814      210.24332      163032.07     -149709.67      109.32349      63.076677      80.592307      555745.43      4.5780157      0.141          16.303207    
    142000   142            300.73735      54454.391     -253.46089      130.72265      163485.91     -149642.46      109.38582      63.128323      80.498486      555869.67      4.5769925      0.142          16.348591    
    143000   143            300.1263       54729.47       49.431808      96.200626      164042.78     -149575.7       109.4239       63.18291       80.404665      555895.35      4.5767811      0.143          16.404278    
    144000   144            299.04032      54645.017      89.138697     -380.11378      164226.03     -149506.75      109.50724      63.232434      80.310844      556105.17      4.5750542      0.144          16.422603    
    145000   145            300.26668      55228.211      791.60374     -178.39915      165071.43     -149430.36      109.51065      63.295342      80.217023      556025.42      4.5757104      0.145          16.507143    
    146000   146            300.51906      54881.545     -446.68606      90.26503       165001.05     -149377.34      109.68743      63.300916      80.123201      556320.61      4.5732825      0.146          16.500105    
    147000   147            300.36479      55219.047     -32.254795      242.37344      165447.02     -149297.55      109.7302       63.354813      80.02938       556359.15      4.5729657      0.147          16.544702    
    148000   148            296.91108      55524.826      391.98068      108.23351      166074.26     -149234.27      109.78205      63.396669      79.935559      556336.8       4.5731494      0.148          16.607426    
    149000   149            301.10224      54886.452     -573.25522     -198.74617      165431.36     -149163.49      109.93335      63.443388      79.841738      556859.72      4.568855       0.149          16.543136    
    150000   150            302.16035      55812.089      436.40922      416.08028      166583.78     -149087.84      109.93918      63.484077      79.747917      556591.59      4.571056       0.15           16.658378    
    151000   151            299.43466      55000.105     -283.9084      -352.50663      165636.73     -149017.06      110.05427      63.556272      79.654096      557151.65      4.5664611      0.151          16.563673    
    152000   152            301.45146      55360.734     -196.43484      112.4948       166166.14     -148957.96      110.16052      63.567136      79.560275      557127.9       4.5666557      0.152          16.616614    
    153000   153            301.25173      55320.16       39.216316      29.700453      165891.56     -148871.17      110.21348      63.638906      79.466454      557366.99      4.5646968      0.153          16.589156    
    154000   154            299.69837      54460.29      -630.20623     -448.54228      164459.62     -148797.28      110.3439       63.70682       79.372633      557962.53      4.5598247      0.154          16.445962    
    155000   155            302.26815      55029.897      559.4991       230.41838      164299.77     -148727.07      110.39333      63.744707      79.278812      557884.25      4.5604645      0.155          16.429977    
    156000   156            305.76436      52070.479     -79.025251     -201.39545      156491.86     -148782.42      110.55805      63.907601      79.184991      559481.54      4.5474446      0.156          15.649186    
    157000   157            325.1204       44977.084     -135.25024      78.729593      134987.77     -149286.77      110.72583      64.194084      79.09117       562175.55      4.5256527      0.157          13.498777    
    158000   158            340.50178      29611.242     -262.82538     -10.952824      89107.505     -150517.7       110.49059      64.925746      78.997349      566702.03      4.4895045      0.158          8.9107505    
    159000   159            304.06369      18405.203     -214.62095      179.40412      55250.825     -151504.18      110.28067      65.368132      78.903527      568802.99      4.4729218      0.159          5.5250825    
    160000   160            299.5842       14394.169      33.993737     -188.93958      43337.452     -151897.48      110.41635      65.446572      78.809706      569508.22      4.4673829      0.16           4.3337452    
    161000   161            299.17407      12632.526     -29.66457      -215.07316      38142.316     -152087.11      110.60292      65.448399      78.715885      569807.29      4.4650382      0.161          3.8142316    
    162000   162            301.0134       12016.468     -19.749324      223.69958      35845.454     -152195.51      110.68711      65.472343      78.622064      569769.71      4.4653327      0.162          3.5845454    
    163000   163            299.53728      11478.628     -63.802481      53.545175      34446.143     -152284.66      110.63676      65.58028       78.528243      569768.74      4.4653403      0.163          3.4446143    
    164000   164            298.34998      11093.08      -205.0124      -108.27749      33592.53      -152335.54      110.66699      65.651856      78.434422      569864.78      4.4645877      0.164          3.359253     
    165000   165            301.45422      10847.172      31.654037     -138.95373      32648.815     -152407.12      110.64091      65.737438      78.340601      569790.78      4.4651676      0.165          3.2648815    
    166000   166            300.47438      11196.311      691.7792       125.00526      32772.147     -152447.76      110.54243      65.83997       78.24678       569488.69      4.4675362      0.166          3.2772147    
    167000   167            300.38372      11135.91       679.96977     -170.3419       32898.101     -152466.3       110.62596      65.862915      78.152959      569434.07      4.4679647      0.167          3.2898101    
    168000   168            299.09617      11580.393      908.36673      243.34502      33589.466     -152498.25      110.6137       65.915521      78.059138      569141.65      4.4702603      0.168          3.3589466    
    169000   169            302.59742      11466.37       575.6074       197.36904      33626.132     -152500.51      110.63839      65.983188      77.965317      569168.13      4.4700523      0.169          3.3626132    
    170000   170            301.59577      11107.378      450.79215      411.33375      32460.008     -152543.33      110.68687      66.038371      77.871496      569207.95      4.4697396      0.17           3.2460008    
    171000   171            299.91143      10406.744     -197.42996     -90.298012      31507.958     -152569.44      110.71177      66.139681      77.777675      569522.44      4.4672714      0.171          3.1507958    
    172000   172            298.08832      10359.434     -102.44091      35.825262      31144.918     -152611.98      110.71548      66.200097      77.683853      569374.12      4.4684351      0.172          3.1144918    
    173000   173            301.59628      9819.5067     -350.84785     -840.38852      30649.756     -152663.54      110.74295      66.287512      77.590032      569578.69      4.4668302      0.173          3.0649756    
    174000   174            300.85028      10077.038     -15.03362      -785.93754      31032.087     -152676.72      110.78719      66.317245      77.496211      569372.52      4.4684476      0.174          3.1032087    
    175000   175            297.07479      10867.976      107.76667      284.87505      32211.287     -152680.18      110.82837      66.326955      77.40239       568977.87      4.4715471      0.175          3.2211287    
    176000   176            300.50734      11095.917     -123.56223      411.96477      32999.348     -152691.64      110.91961      66.340178      77.308569      568869.45      4.4723992      0.176          3.2999348    
    177000   177            300.10559      11694.103      266.71448      708.24653      34107.347     -152706.3       110.95326      66.357253      77.214748      568497.73      4.4753236      0.177          3.4107347    
    178000   178            301.15857      11830.505      629.49796      155.57544      34706.441     -152695.75      110.9278       66.446131      77.120927      568436.98      4.4758019      0.178          3.4706441    
    179000   179            299.1323       12089.323      357.12485      313.03501      35597.81      -152703.22      110.99664      66.468674      77.027106      568290.52      4.4769554      0.179          3.559781     
    180000   180            298.81485      12347.193     -10.384931      284.95815      36767.005     -152708.53      111.1032       66.474071      76.933285      568189.42      4.477752       0.18           3.6767005    
    181000   181            300.13663      12627.129      340.38848      81.106373      37459.891     -152702.76      111.09406      66.54403       76.839464      568047         4.4788747      0.181          3.7459891    
    182000   182            299.38642      13115.775      474.67476      77.681337      38794.97      -152685.97      111.14462      66.573439      76.745643      567862.48      4.48033        0.182          3.879497     
    183000   183            301.28527      13530.509      609.69813      355.40253      39626.425     -152680.05      111.19025      66.605379      76.651822      567673.35      4.4818227      0.183          3.9626425    
    184000   184            299.76565      13471.36       29.297869      454.26965      39930.511     -152676.13      111.31389      66.620732      76.558         567739.79      4.4812982      0.184          3.9930511    
    185000   185            298.99233      13970.638      295.16877      780.01966      40836.726     -152681.43      111.37069      66.631815      76.464179      567427.79      4.4837623      0.185          4.0836726    
    186000   186            300.81818      13744.813     -290.34693      193.06596      41331.719     -152663.05      111.46806      66.679685      76.370358      567634.55      4.4821291      0.186          4.1331719    
    187000   187            298.40256      13928.882     -14.575762      110.91313      41690.308     -152664.31      111.47278      66.742133      76.276537      567492.19      4.4832534      0.187          4.1690308    
    188000   188            300.44438      14418.454      629.97763      96.801452      42528.584     -152670.66      111.45355      66.80564       76.182716      567235.63      4.4852812      0.188          4.2528584    
    189000   189            299.91502      14083.924     -16.406282      197.24564      42070.934     -152685.08      111.57062      66.828237      76.088895      567323.98      4.4845827      0.189          4.2070934    
    190000   190            300.0803       13502.182      115.04111     -392.57383      40784.078     -152693.43      111.62523      66.904928      75.995074      567552.31      4.4827785      0.19           4.0784078    
    191000   191            299.44669      13715.828     -29.31653       218.59121      40958.211     -152707.42      111.74886      66.905254      75.901253      567482.24      4.483332       0.191          4.0958211    
    192000   192            298.95155      13896.332      432.67247      774.27249      40482.052     -152719.07      111.80194      66.939358      75.807432      567339.03      4.4844637      0.192          4.0482052    
    193000   193            300.08734      13818.643      304.7707       529.12422      40622.033     -152738.6       111.87542      66.981554      75.713611      567366.74      4.4842448      0.193          4.0622033    
    194000   194            299.97549      13584.834      249.56616      110.08467      40394.851     -152739.69      111.9367       67.042128      75.61979       567486.81      4.483296       0.194          4.0394851    
    195000   195            300.66212      13359.914     -410.14984      263.47465      40226.416     -152746.06      112.10199      67.037352      75.525969      567579.2       4.4825662      0.195          4.0226416    
    196000   196            300.12878      13816.093     -87.622166      383.80284      41152.099     -152739.97      112.07498      67.112499      75.432148      567372.83      4.4841966      0.196          4.1152099    
    197000   197            300.31869      13797.626     -95.351851      364.46982      41123.759     -152755.83      112.09424      67.185807      75.338326      567383.64      4.4841111      0.197          4.1123759    
    198000   198            299.67938      13945.59      -14.048807      472.00254      41378.815     -152762.23      112.13211      67.223465      75.244505      567186.22      4.4856719      0.198          4.1378815    
    199000   199            300.65901      13970.742      164.18876      201.39992      41546.638     -152768.73      112.15758      67.293317      75.150684      567196.47      4.4855909      0.199          4.1546638    
    200000   200            300.59489      14269.878     -118.96254      509.75515      42418.842     -152767.98      112.23874      67.31006       75.056863      567039.29      4.4868343      0.2            4.2418842    
    201000   201            298.64725      14782.975      573.82724      203.11558      43571.983     -152760.86      112.22488      67.371623      74.963042      566778.51      4.4888987      0.201          4.3571983    
    202000   202            299.31181      14850.017      25.701632      608.60438      43915.744     -152760.81      112.38666      67.360774      74.869221      566793.88      4.4887769      0.202          4.3915744    
    203000   203            297.45332      14834.193      43.388626      391.73673      44067.454     -152765.41      112.41593      67.423999      74.7754        566762.48      4.4890257      0.203          4.4067454    
    204000   204            300.54009      14819.413     -32.874865      273.65433      44217.461     -152764.62      112.51766      67.458149      74.681579      566850.58      4.488328       0.204          4.4217461    
    205000   205            302.61981      14754.764     -213.06317     -45.657486      44523.012     -152768.98      112.58041      67.51131       74.587758      566900.61      4.4879319      0.205          4.4523012    
    206000   206            301.07244      15538.944      217.88852      638.43686      45760.508     -152761.79      112.62643      67.525185      74.493937      566535.36      4.4908253      0.206          4.5760508    
    207000   207            300.7586       15574.362      111.1438       348.88927      46263.052     -152758.53      112.6278       67.610516      74.400116      566543.76      4.4907587      0.207          4.6263052    
    208000   208            299.43181      16170.869      332.5683       567.11664      47612.922     -152732.03      112.74983      67.597017      74.306295      566329.3       4.4924593      0.208          4.7612922    
    209000   209            301.64319      16495.156      440.16333      631.99207      48413.314     -152740.78      112.79696      67.631438      74.212474      566138.79      4.493971       0.209          4.8413314    
    210000   210            300.04003      16530          48.228467      317.98214      49223.79      -152728.45      112.89535      67.6654        74.118652      566200.48      4.4934814      0.21           4.922379     
    211000   211            302.15742      16668.357     -37.834168     -152.75395      50195.659     -152701.63      112.92939      67.735276      74.024831      566238.39      4.4931805      0.211          5.0195659    
    212000   212            299.15674      16880.96       33.997388     -189.026        50797.91      -152697.99      113.01005      67.759716      73.93101       566128.83      4.4940501      0.212          5.079791     
    213000   213            300.30926      16706.325     -594.21672     -162.60491      50875.798     -152675.82      113.19224      67.757155      73.837189      566300.51      4.4926876      0.213          5.0875798    
    214000   214            299.24687      17198.295     -331.66098      147.30723      51779.239     -152685.73      113.2179       67.791467      73.743368      565995.66      4.4951075      0.214          5.1779239    
    215000   215            302.81164      17511.485      282.32398     -95.370617      52347.501     -152675.67      113.22955      67.861567      73.649547      565918.29      4.495722       0.215          5.2347501    
    216000   216            299.14239      17442.312      6.0382827     -41.617634      52362.515     -152675.59      113.3294       67.889211      73.555726      565926.26      4.4956587      0.216          5.2362515    
    217000   217            298.83968      16527.705     -915.02934     -470.26906      50968.414     -152678.5       113.47825      67.938249      73.461905      566355.54      4.4922511      0.217          5.0968414    
    218000   218            300.25655      16595.359     -332.23083     -541.11004      50659.418     -152690.22      113.56251      67.967421      73.368084      566295.28      4.4927292      0.218          5.0659418    
    219000   219            298.40038      16794.179      122.11937     -366.11995      50626.537     -152713.34      113.59532      68.014019      73.274263      566122.39      4.4941012      0.219          5.0626537    
    220000   220            298.70864      16787.958      167.75101     -120.7265       50316.848     -152700.22      113.73314      68.028807      73.180442      566206.6       4.4934328      0.22           5.0316848    
    221000   221            299.78929      16562.333     -334.72621      106.41631      49915.31      -152708.59      113.85215      68.05626       73.086621      566300.82      4.4926852      0.221          4.991531     
    222000   222            298.36379      16674.81      -160.33872      258.39638      49926.373     -152714.14      113.94784      68.079793      72.992799      566244.94      4.4931285      0.222          4.9926373    
    223000   223            299.5049       16398.552      53.894024      41.403081      49100.36      -152727.89      113.97105      68.162111      72.898978      566316.25      4.4925628      0.223          4.910036     
    224000   224            299.20466      16427.134      460.53348     -121.27197      48942.141     -152730.51      114.0325       68.206379      72.805157      566259.89      4.4930099      0.224          4.8942141    
    225000   225            301.95193      16171.567     -435.55955      135.33088      48814.929     -152739.45      114.16512      68.22822       72.711336      566369.17      4.492143       0.225          4.8814929    
    226000   226            298.93171      15928.951     -599.42925      11.648662      48374.633     -152743.6       114.26848      68.269632      72.617515      566494.12      4.4911522      0.226          4.8374633    
    227000   227            299.31157      15798.782     -334.36665     -280.91881      48011.63      -152751         114.3328       68.323384      72.523694      566526.34      4.4908968      0.227          4.801163     
    228000   228            299.5439       15661.521     -724.31954     -400.10115      48108.984     -152764.4       114.42837      68.359169      72.429873      566562.99      4.4906063      0.228          4.8108984    
    229000   229            301.08122      15893.013     -319.28085     -289.45409      48287.774     -152771.88      114.50474      68.390996      72.336052      566470.39      4.4913403      0.229          4.8287774    
    230000   230            301.01676      16576.147      408.85361      638.25844      48681.329     -152779.73      114.54154      68.40577       72.242231      566039.72      4.4947576      0.23           4.8681329    
    231000   231            302.10196      16332.494      538.00977      356.57729      48102.895     -152806.65      114.6299       68.446196      72.14841       566075.02      4.4944773      0.231          4.8102895    
    232000   232            298.61482      16156.104      465.50443      443.42231      47559.385     -152812.6       114.67372      68.514922      72.054589      566122.89      4.4940973      0.232          4.7559385    
    233000   233            301.19062      16026.538      235.88409      338.69046      47505.039     -152804.92      114.79814      68.547914      71.960768      566271.75      4.4929158      0.233          4.7505039    
    234000   234            302.54824      15568.092     -194.27363     -462.33355      47360.882     -152804.79      114.90644      68.598636      71.866947      566485.83      4.4912179      0.234          4.7360882    
    235000   235            298.72345      15759.255     -70.175673     -392.45628      47740.398     -152812.21      115.03207      68.596403      71.773125      566346.41      4.4923236      0.235          4.7740398    
    236000   236            299.67068      16088.471      211.81111      89.551271      47964.05      -152829.6       115.1454       68.595429      71.679304      566155.26      4.4938403      0.236          4.796405     
    237000   237            299.8877       16345.302      332.86911      416.77794      48286.259     -152843.67      115.21717      68.627437      71.585483      566030.67      4.4948294      0.237          4.8286259    
    238000   238            301.48369      15839.415     -345.56641      211.83095      47651.98      -152841.02      115.35272      68.665675      71.491662      566269.17      4.4929363      0.238          4.765198     
    239000   239            297.92297      15826.619     -66.391858      3.6491764      47542.599     -152846.38      115.43022      68.705871      71.397841      566237.28      4.4931893      0.239          4.7542599    
    240000   240            298.95982      16058.769      28.555117     -34.204227      48181.957     -152856.66      115.49854      68.73579       71.30402       566074.29      4.4944831      0.24           4.8181957    
    241000   241            302.22823      16311.681      252.56293      474.557        48207.924     -152856.99      115.56845      68.772998      71.210199      565977.86      4.4952488      0.241          4.8207924    
    242000   242            302.38752      16167.432      105.40568      419.53521      47977.354     -152870.69      115.65294      68.815572      71.116378      565995.57      4.4951082      0.242          4.7977354    
    243000   243            299.83358      16009.417     -196.55003      135.46229      48089.34      -152860.16      115.68001      68.898484      71.022557      566062.39      4.4945776      0.243          4.808934     
    244000   244            300.62267      16454.968      725.18623     -22.25831       48661.975     -152860.44      115.68531      68.959877      70.928736      565844.23      4.4963104      0.244          4.8661975    
    245000   245            299.71228      16273.106      35.968593      204.37605      48578.974     -152864.22      115.82049      68.977727      70.834915      565902.56      4.495847       0.245          4.8578974    
    246000   246            301.03253      16752.232      426.2239       190.5457       49639.926     -152840.48      115.8198       69.048021      70.741094      565725.58      4.4972534      0.246          4.9639926    
    247000   247            298.38879      16803.396      160.29006      139.06974      50110.827     -152842.78      115.87886      69.096559      70.647273      565660.74      4.4977689      0.247          5.0110827    
    248000   248            301.64001      17247.215      490.14542      377.17269      50874.326     -152837.13      115.89391      69.157027      70.553451      565477.35      4.4992277      0.248          5.0874326    
    249000   249            300.65575      17668.123      422.11374      974.19002      51608.065     -152844.06      116.00559      69.156054      70.45963       565261.61      4.5009448      0.249          5.1608065    
    250000   250            299.88753      17654.455      587.3133       361.03985      52015.011     -152839.7       116.00369      69.254453      70.365809      565302.89      4.5006161      0.25           5.2015011    
Loop time of 5864.17 on 1 procs for 250000 steps with 32000 atoms

Performance: 3.683 ns/day, 6.516 hours/ns, 42.632 timesteps/s, 1.364 Matom-step/s
97.6% CPU use with 1 MPI tasks x 1 OpenMP threads

MPI task timing breakdown:
Section |  min time  |  avg time  |  max time  |%varavg| %total
---------------------------------------------------------------
Pair    | 5607.8     | 5607.8     | 5607.8     |   0.0 | 95.63
Neigh   | 1.1137     | 1.1137     | 1.1137     |   0.0 |  0.02
Comm    | 40.669     | 40.669     | 40.669     |   0.0 |  0.69
Output  | 0.69788    | 0.69788    | 0.69788    |   0.0 |  0.01
Modify  | 194.09     | 194.09     | 194.09     |   0.0 |  3.31
Other   |            | 19.85      |            |       |  0.34

Nlocal:          32000 ave       32000 max       32000 min
Histogram: 1 0 0 0 0 0 0 0 0 0
Nghost:          18954 ave       18954 max       18954 min
Histogram: 1 0 0 0 0 0 0 0 0 0
Neighs:    1.11642e+06 ave 1.11642e+06 max 1.11642e+06 min
Histogram: 1 0 0 0 0 0 0 0 0 0
FullNghs:  2.23285e+06 ave 2.23285e+06 max 2.23285e+06 min
Histogram: 1 0 0 0 0 0 0 0 0 0

Total # of neighbors = 2232848
Ave neighs/atom = 69.7765
Neighbor list builds = 629
Dangerous builds = 0
System init for write_data ...
System init for write_restart ...
Completed Ti 32k, 1e9 s^-1
Reference Lz after equilibration = 93.8210790219212 Angstrom
Final compressive engineering strain = 0.25
Total wall time: 2:13:07
