LAMMPS (22 Jul 2025 - Update 6)
KOKKOS mode with Kokkos version 4.6.2 is enabled
  will use up to 1 GPU(s) per node
Kokkos::OpenMP::initialize WARNING: OMP_PROC_BIND environment variable not set
  In general, for best performance with OpenMP 4.0 or better set OMP_PROC_BIND=spread and OMP_PLACES=threads
  For best performance with OpenMP 3.1 set OMP_PROC_BIND=true
  For unit testing set OMP_PROC_BIND=false

MPI detected: For OpenMP binding to work as intended, MPI ranks must be bound to exclusive CPU sets.

  using 1 OpenMP thread(s) per MPI task
  using 1 OpenMP thread(s) per MPI task
Reading data file ...
  orthogonal box = (0 0 0) to (153.2865 88.5 140.4)
  1 by 1 by 1 MPI processor grid
  reading atoms ...
  108000 atoms
  read_data CPU = 0.123 seconds
Neighbor list info ...
  update: every = 1 steps, delay = 0 steps, check = yes
  max neighbors/atom: 2000, page size: 100000
  master list distance cutoff = 6.8
  ghost atom cutoff = 6.8
  binsize = 6.8, bins = 23 14 21
  2 neighbor lists, perpetual/occasional/extra = 2 0 0
  (1) pair meam/kk, perpetual
      attributes: full, newton on, kokkos_device
      pair build: full/bin/kk/device
      stencil: full/bin/3d
      bin: kk/device
  (2) pair meam/kk, perpetual, half/full from (1)
      attributes: half, newton on, kokkos_device
      pair build: halffull/newton/kk/device
      stencil: none
      bin: none
Setting up Verlet run ...
  Unit style    : metal
  Current step  : 0
  Time step     : 0.001
Per MPI rank memory allocation (min/avg/max) = 161 | 161 | 161 Mbytes
   Step          Time         Atoms         Temp          Press           Pxx            Pyy            Pzz           PotEng           Lx             Ly             Lz           Volume        Density    
         0   0                 108000   300            706.04155     -406.07436     -413.99371      2938.1927     -526245.07      153.2865       88.5           140.4          1904646        4.5082987    
      1000   1                 108000   271.35365     -12.941975     -1371.4528     -1282.8758      2615.5027     -522494.36      153.61221      88.688048      140.69833      1916813        4.4796822    
      2000   2                 108000   298.42238      152.64322     -1236.6361     -1193.9766      2888.5424     -521936.73      153.66487      88.718455      140.74657      1918785.3      4.4750777    
      3000   3                 108000   297.11254      32.469254     -1324.5475     -1296.9018      2718.8571     -522033.98      153.66005      88.71567       140.74215      1918604.6      4.4754992    
      4000   4                 108000   301.54587     -42.701127     -1365.2802     -1416.0032      2653.1799     -521986.47      153.66713      88.719757      140.74863      1918869.7      4.4748807    
      5000   5                 108000   297.70227      31.657589     -1316.6314     -1353.5898      2765.1939     -522030.35      153.65986      88.715561      140.74198      1918597.5      4.4755156    
      6000   6                 108000   300.51824      61.765041     -1323.3041     -1266.8932      2775.4925     -521985.16      153.6632       88.717488      140.74503      1918722.5      4.475224     
      7000   7                 108000   299.82118      94.907468     -1259.9997     -1219.7354      2764.4575     -522051.31      153.65644      88.713589      140.73885      1918469.6      4.4758141    
      8000   8                 108000   301.38098      322.8493      -1030.9549     -1034.7301      3034.2329     -522017.81      153.64845      88.708972      140.73152      1918170        4.476513     
      9000   9                 108000   299.62683      282.58091     -1098.2574     -1065.2079      3011.208      -522023.8       153.64949      88.709572      140.73247      1918209        4.4764222    
     10000   10                108000   300.40059      30.363209     -1309.3172     -1349.1413      2749.5481     -522021.76      153.66243      88.717047      140.74433      1918693.9      4.4752907    
     11000   11                108000   301.40359     -67.666158     -1438.7118     -1413.3836      2649.0969     -522035.4       153.66579      88.718983      140.7474       1918819.5      4.4749978    
     12000   12                108000   300.06909     -80.288617     -1439.7898     -1443.4861      2642.41       -522027.31      153.66644      88.71936       140.748        1918844        4.4749407    
     13000   13                108000   301.64956     -103.15784     -1463.7753     -1463.9951      2618.2969     -522025.07      153.66841      88.7205        140.74981      1918918        4.4747682    
     14000   14                108000   299.37601     -90.386543     -1410.6867     -1472.7217      2612.2488     -522034.37      153.66674      88.719536      140.74828      1918855.4      4.4749142    
     15000   15                108000   300.42763     -99.172632     -1459.2896     -1484.0618      2645.8335     -521999.1       153.66916      88.720932      140.7505       1918946        4.4747029    
     16000   16                108000   298.4719       184.6586      -1164.5299     -1211.5174      2930.0231     -522021.69      153.65357      88.711932      140.73622      1918362        4.476065     
     17000   17                108000   301.04771      218.92279     -1118.6593     -1203.0322      2978.4598     -522007.31      153.65458      88.712512      140.73714      1918399.7      4.4759772    
     18000   18                108000   299.29069      126.06387     -1221.3883     -1251.841       2851.4209     -522027.18      153.65699      88.713907      140.73935      1918490.2      4.475766     
     19000   19                108000   300.41579      77.489587     -1281.8341     -1273.3671      2787.67       -522010.65      153.66085      88.716134      140.74288      1918634.6      4.475429     
     20000   20                108000   299.72268      30.491584     -1353.9595     -1329.3763      2774.8106     -522028.74      153.66158      88.716557      140.74355      1918662.1      4.4753649    
     21000   21                108000   299.26809     -58.884648     -1399.4505     -1438.7617      2661.5583     -522007.04      153.66716      88.719777      140.74866      1918871        4.4748777    
     22000   22                108000   300.65729     -263.86781     -1610.1413     -1623.6516      2442.1895     -522024.03      153.67603      88.724898      140.75679      1919203.4      4.4741028    
     23000   23                108000   299.54813     -355.98223     -1697.4782     -1730.31        2359.8415     -522014.62      153.68096      88.727745      140.7613       1919388.1      4.4736722    
     24000   24                108000   300.13391     -147.98044     -1521.9559     -1517.5781      2595.5926     -522016.38      153.67029      88.721582      140.75153      1918988.2      4.4746045    
     25000   25                108000   299.91342     -7.9249571     -1373.2711     -1352.966       2702.4622     -522032.16      153.66283      88.717274      140.74469      1918708.7      4.4752564    
     26000   26                108000   301.5601       21.487811     -1318.837      -1356.1802      2739.4806     -522019.03      153.66303      88.717393      140.74488      1918716.4      4.4752384    
     27000   27                108000   299.31589      93.740293     -1279.2079     -1265.6691      2826.0979     -522025.56      153.65787      88.714411      140.74015      1918522.9      4.4756898    
     28000   28                108000   301.03051      198.76306     -1162.571      -1188.3449      2947.2051     -522010.17      153.65489      88.712693      140.73742      1918411.4      4.4759498    
     29000   29                108000   298.01831      249.13907     -1092.3187     -1134.1558      2973.8918     -522020.5       153.64994      88.709832      140.73289      1918225.9      4.4763828    
     30000   30                108000   300.18728      86.329491     -1300.7109     -1263.872       2823.5714     -521994.86      153.66122      88.716349      140.74322      1918648.6      4.4753964    
     31000   31                108000   299.10985     -59.304849     -1374.7206     -1428.6827      2625.4887     -522033.13      153.6648       88.718411      140.7465       1918782.4      4.4750844    
     32000   32                108000   300.90284     -77.129314     -1417.1227     -1469.5025      2655.2372     -522007.39      153.66822      88.720391      140.74964      1918910.9      4.4747848    
     33000   33                108000   299.55108     -78.247945     -1416.5797     -1432.8771      2614.7129     -522023.45      153.66655      88.719427      140.74811      1918848.3      4.4749307    
     34000   34                108000   299.9487      -110.96431     -1506.832      -1439.877       2613.816      -522010.45      153.66963      88.7212        140.75092      1918963.4      4.4746624    
     35000   35                108000   299.52344     -170.59281     -1558.6943     -1486.1711      2533.087      -522016.05      153.6717       88.7224        140.75282      1919041.3      4.4744808    
     36000   36                108000   300.03467     -122.82606     -1464.7764     -1478.4084      2574.7067     -522022.51      153.66887      88.720763      140.75023      1918935        4.4747284    
     37000   37                108000   300.24789      47.400629     -1285.1225     -1339.5641      2766.8885     -522013.06      153.66231      88.716977      140.74422      1918689.4      4.4753014    
     38000   38                108000   300.27661      170.30215     -1138.3483     -1236.1158      2885.3706     -522029.12      153.65514      88.712838      140.73766      1918420.9      4.4759277    
     39000   39                108000   300.35039      68.223567     -1287.4943     -1304.7768      2796.9418     -522019.63      153.66063      88.716006      140.74268      1918626.4      4.4754483    
     40000   40                108000   298.47669      35.730542     -1327.3156     -1317.9384      2752.4456     -522030.95      153.66045      88.715902      140.74252      1918619.6      4.4754641    
     41000   41                108000   300.72052      1.0854309     -1363.8342     -1332.048       2699.1385     -522015.9       153.66445      88.718213      140.74618      1918769.6      4.4751143    
     42000   42                108000   300.4852      -6.0459542     -1393.7865     -1327.5913      2703.2399     -522040.26      153.66254      88.717106      140.74443      1918697.7      4.4752819    
     43000   43                108000   299.94778     -12.905602     -1385.9454     -1387.6934      2734.922      -522002.95      153.66538      88.718746      140.74703      1918804.1      4.4750337    
     44000   44                108000   299.97071      26.7675       -1346.9477     -1302.8223      2730.0725     -522017.65      153.66279      88.717254      140.74466      1918707.3      4.4752595    
     45000   45                108000   299.22112      128.9624      -1275.0853     -1232.7445      2894.717      -522014.25      153.65796      88.714462      140.74023      1918526.2      4.475682     
     46000   46                108000   301.04589      194.83416     -1161.7708     -1171.5009      2917.7742     -522024.47      153.65466      88.712557      140.73721      1918402.6      4.4759703    
     47000   47                108000   299.77831      223.9351      -1184.8069     -1103.9778      2960.59       -522023.96      153.65281      88.711493      140.73552      1918333.6      4.4761314    
     48000   48                108000   300.63459      72.217591     -1300.7208     -1276.2743      2793.6478     -522022.67      153.66077      88.716089      140.74281      1918631.8      4.4754357    
     49000   49                108000   299.95132     -63.860676     -1408.4673     -1429.3199      2646.2051     -522032.37      153.66565      88.718906      140.74728      1918814.5      4.4750095    
     50000   50                108000   299.67331     -53.810883     -1388.4731     -1443.2695      2670.31       -522017.45      153.66643      88.719353      140.74799      1918843.5      4.4749418    
     51000   51                108000   300.63579     -76.200148     -1433.4796     -1442.4565      2647.3357     -522021.99      153.66792      88.720217      140.74936      1918899.6      4.4748111    
     52000   52                108000   299.60746     -120.92121     -1501.6222     -1506.4627      2645.3213     -522038.8       153.66813      88.720336      140.74955      1918907.3      4.4747931    
     53000   53                108000   299.85452     -108.4987      -1468.8427     -1456.4588      2599.8054     -522014.12      153.66977      88.721284      140.75105      1918968.8      4.4746496    
     54000   54                108000   300.59248      43.539684     -1294.6764     -1352.7577      2778.0531     -522005.54      153.66305      88.717403      140.7449       1918717        4.4752369    
     55000   55                108000   300.92332      143.90706     -1203.6243     -1245.989       2881.3345     -522029.38      153.65648      88.713611      140.73888      1918471        4.4758109    
     56000   56                108000   300.27874      204.28403     -1177.4653     -1148.6389      2938.9563     -522004.26      153.65625      88.713477      140.73867      1918462.3      4.4758311    
     57000   57                108000   300.05676      98.031714     -1269.7076     -1286.1538      2849.9565     -522014.9       153.65948      88.715339      140.74162      1918583.1      4.4755492    
     58000   58                108000   300.54687      24.043983     -1338.656      -1367.1926      2777.9806     -522004.95      153.66396      88.717929      140.74573      1918751.2      4.4751572    
     59000   59                108000   299.78796      7.3522437     -1370.3459     -1325.215       2717.6177     -522010.33      153.66463      88.718315      140.74634      1918776.2      4.4750989    
     60000   60                108000   300.08377     -24.532225     -1413.3595     -1356.6837      2696.4466     -522004.06      153.6661       88.719162      140.74769      1918831.1      4.4749707    
     61000   61                108000   298.77063     -89.745702     -1469.7493     -1450.7566      2651.2687     -522023.68      153.66687      88.719607      140.74839      1918860        4.4749034    
     62000   62                108000   300.20515     -223.98179     -1558.8089     -1596.2443      2483.1078     -522017.97      153.67457      88.724054      140.75545      1919148.6      4.4742306    
     63000   63                108000   300.15182     -212.25789     -1551.896      -1596.174       2511.2963     -522022.42      153.67362      88.723503      140.75457      1919112.8      4.4743139    
     64000   64                108000   298.61224     -69.02169      -1399.9128     -1464.8507      2657.6984     -522025.24      153.66602      88.719119      140.74762      1918828.4      4.4749772    
     65000   65                108000   300.2195       33.495264     -1297.5802     -1361.4199      2759.4859     -522023.23      153.66186      88.716719      140.74381      1918672.6      4.4753405    
     66000   66                108000   299.35238      96.12761      -1281.7652     -1247.0841      2817.2321     -522023.4       153.65854      88.714802      140.74077      1918548.2      4.4756306    
     67000   67                108000   300.14934      64.368811     -1310.741      -1294.2307      2798.0782     -522019.96      153.66076      88.716082      140.7428       1918631.3      4.4754369    
     68000   68                108000   299.53667      41.200292     -1383.5958     -1257.4649      2764.6616     -522027.68      153.66083      88.716124      140.74287      1918634        4.4754304    
     69000   69                108000   299.64431      35.462089     -1357.2866     -1317.0259      2780.6987     -522000.78      153.66458      88.718287      140.7463       1918774.4      4.4751031    
     70000   70                108000   298.60476     -124.3012      -1454.6871     -1501.9118      2583.6953     -522011.78      153.67028      88.721575      140.75152      1918987.7      4.4746056    
     71000   71                108000   299.31936     -226.75245     -1539.6431     -1593.2015      2452.5873     -521992.84      153.67713      88.725534      140.7578       1919244.6      4.4740066    
     72000   72                108000   299.46984     -162.90865     -1519.1102     -1517.9056      2548.2898     -522018.01      153.67204      88.722596      140.75314      1919054        4.4744511    
     73000   73                108000   300.04612     -28.99258      -1406.5242     -1377.476       2697.0224     -521999.64      153.66702      88.719698      140.74854      1918865.9      4.4748897    
     74000   74                108000   298.97339      2.7570522     -1432.4537     -1310.7117      2751.4366     -522022.29      153.66302      88.717383      140.74487      1918715.7      4.4752399    
     75000   75                108000   299.71894      33.53994      -1379.5782     -1294.9334      2775.1315     -522010.96      153.66245      88.717059      140.74435      1918694.7      4.475289     
     76000   76                108000   300.11644      47.728085     -1309.6599     -1288.1818      2741.026      -522042.78      153.65984      88.71555       140.74196      1918596.8      4.4755173    
     77000   77                108000   299.51942      48.469467     -1324.3806     -1311.0801      2780.8691     -522004.58      153.66255      88.717113      140.74444      1918698.2      4.4752809    
     78000   78                108000   300.64858      55.984546     -1293.767      -1316.988       2778.7086     -522025.8       153.66166      88.716601      140.74363      1918665        4.4753582    
     79000   79                108000   300.45406      0.27519372    -1318.5007     -1381.6028      2700.9291     -522028.98      153.66336      88.717581      140.74518      1918728.5      4.47521      
     80000   80                108000   300.70486     -202.02343     -1596.4835     -1544.5089      2534.922      -522014.26      153.67407      88.723764      140.75499      1919129.8      4.4742744    
     81000   81                108000   300.47104     -235.04782     -1638.8567     -1551.0579      2484.7712     -522037.4       153.67327      88.723306      140.75426      1919100        4.4743437    
     82000   82                108000   299.87507     -57.701899     -1402.1701     -1431.5088      2660.5732     -522015.93      153.66622      88.719236      140.74781      1918835.9      4.4749595    
     83000   83                108000   299.28351      5.7821255     -1366.428      -1354.995       2738.7694     -522022.92      153.66278      88.717245      140.74465      1918706.8      4.4752608    
     84000   84                108000   300.76418      58.387832     -1308.3303     -1321.8687      2805.3625     -522032.43      153.65978      88.715516      140.7419       1918594.6      4.4755224    
     85000   85                108000   299.05387      214.73641     -1139.8154     -1153.6406      2937.6653     -522024.99      153.65315      88.711687      140.73583      1918346.2      4.476102     
     86000   86                108000   300.63136      249.28999     -1126.3601     -1092.131       2966.3611     -521991.36      153.65496      88.712731      140.73748      1918413.9      4.4759441    
     87000   87                108000   299.65162      72.787104     -1313.3756     -1284.6427      2816.3797     -522026.87      153.65993      88.715603      140.74204      1918600.2      4.4755093    
     88000   88                108000   299.75384     -82.565502     -1478.8351     -1417.8361      2648.9747     -522035.02      153.66654      88.719421      140.7481       1918847.9      4.4749316    
     89000   89                108000   298.83718     -121.30276     -1477.4168     -1483.487       2596.9955     -522015.78      153.66927      88.720994      140.75059      1918950        4.4746935    
     90000   90                108000   300.31534     -123.40584     -1469.1866     -1482.7526      2581.7216     -522008.29      153.67114      88.722073      140.75231      1919020        4.4745303    
     91000   91                108000   300.39619     -98.598239     -1446.3729     -1466.1829      2616.761      -522037.2       153.66713      88.719756      140.74863      1918869.7      4.4748808    
     92000   92                108000   300.00974     -28.419478     -1385.5719     -1362.2723      2662.5858     -522019.76      153.66549      88.718812      140.74713      1918808.4      4.4750237    
     93000   93                108000   299.24804      45.425115     -1339.8421     -1300.7202      2776.8376     -522026.3       153.66111      88.716285      140.74312      1918644.5      4.4754061    
     94000   94                108000   300.80685      87.165668     -1267.0644     -1239.4734      2768.0347     -522016.48      153.66054      88.715952      140.74259      1918622.9      4.4754565    
     95000   95                108000   299.50482      158.90981     -1247.4804     -1134.0122      2858.222      -522037.09      153.65502      88.712769      140.73754      1918416.3      4.4759383    
     96000   96                108000   299.88642      102.55791     -1291.0763     -1221.7626      2820.5127     -522012.79      153.6599       88.715587      140.74202      1918599.2      4.4755117    
     97000   97                108000   299.0079      -66.524407     -1409.8358     -1420.4494      2630.7119     -522028.6       153.66607      88.719146      140.74766      1918830.1      4.4749731    
     98000   98                108000   300.56865     -125.47487     -1466.6271     -1504.1874      2594.3899     -522021.72      153.66982      88.72131       140.75109      1918970.5      4.4746457    
     99000   99                108000   299.03838     -100.28593     -1460.9789     -1471.4192      2631.5403     -522015.77      153.6684       88.720494      140.7498       1918917.6      4.4747692    
    100000   100               108000   299.67747     -54.604284     -1415.6266     -1395.6997      2647.5135     -522019.05      153.66626      88.719259      140.74784      1918837.5      4.474956     
Loop time of 5772.24 on 1 procs for 100000 steps with 108000 atoms

Performance: 1.497 ns/day, 16.034 hours/ns, 17.324 timesteps/s, 1.871 Matom-step/s
99.0% CPU use with 1 MPI tasks x 1 OpenMP threads

MPI task timing breakdown:
Section |  min time  |  avg time  |  max time  |%varavg| %total
---------------------------------------------------------------
Pair    | 5673.9     | 5673.9     | 5673.9     |   0.0 | 98.30
Neigh   | 0.0033579  | 0.0033579  | 0.0033579  |   0.0 |  0.00
Comm    | 17.992     | 17.992     | 17.992     |   0.0 |  0.31
Output  | 0.069447   | 0.069447   | 0.069447   |   0.0 |  0.00
Modify  | 71.008     | 71.008     | 71.008     |   0.0 |  1.23
Other   |            | 9.267      |            |       |  0.16

Nlocal:         108000 ave      108000 max      108000 min
Histogram: 1 0 0 0 0 0 0 0 0 0
Nghost:          38158 ave       38158 max       38158 min
Histogram: 1 0 0 0 0 0 0 0 0 0
Neighs:    3.70751e+06 ave 3.70751e+06 max 3.70751e+06 min
Histogram: 1 0 0 0 0 0 0 0 0 0
FullNghs:  7.41502e+06 ave 7.41502e+06 max 7.41502e+06 min
Histogram: 1 0 0 0 0 0 0 0 0 0

Total # of neighbors = 7415022
Ave neighs/atom = 68.657611
Neighbor list builds = 1
Dangerous builds = 0
System init for write_data ...
System init for write_restart ...
WARNING: No fixes with time integration, atoms won't move
For more information see https://docs.lammps.org/err0028 (src/verlet.cpp:60)
Setting up Verlet run ...
  Unit style    : metal
  Current step  : 0
  Time step     : 0.001
Per MPI rank memory allocation (min/avg/max) = 161 | 161 | 161 Mbytes
   Step          Time         Atoms         Temp          Press           Pxx            Pyy            Pzz           PotEng           Lx             Ly             Lz           Volume        Density    
         0   0                 108000   299.67747     -54.604284     -1415.6266     -1395.6997      2647.5135     -522019.05      153.66626      88.719259      140.74784      1918837.5      4.474956     
Loop time of 0.00061495 on 1 procs for 0 steps with 108000 atoms

WARNING: New thermo_style command, previous thermo_modify settings will be lost (src/output.cpp:912)
Setting up Verlet run ...
  Unit style    : metal
  Current step  : 0
  Time step     : 0.001
Per MPI rank memory allocation (min/avg/max) = 161 | 161 | 161 Mbytes
   Step          Time           Temp          Press           Pxx            Pyy            Pzz           PotEng           Lx             Ly             Lz           Volume        Density        v_strain       v_sigzz    
         0   0              299.67747     -54.604284     -1415.6266     -1395.6997      2647.5135     -522019.05      153.66626      88.719259      140.74784      1918837.5      4.474956      -1.4135348e-15  0.26475135   
      1000   1              298.58358      5636.2209     -126.44589     -109.50169      17144.61      -521979.1       154.05607      88.947114      139.34036      1909359.1      4.4971704      0.01           1.714461     
      2000   2              299.54548      10430.827      107.55746      59.882063      31125.041     -521711.57      154.55276      89.235813      137.93289      1902320.9      4.513809       0.02           3.1125041    
      3000   3              299.22991      15000.944      67.166649      20.608656      44915.056     -521299.72      155.09547      89.547323      136.52541      1896117.4      4.5285769      0.03           4.4915056    
      4000   4              300.24086      19540.551      98.70285      -54.20547       58577.155     -520718.63      155.66279      89.882395      135.11793      1890481.4      4.5420775      0.04           5.8577155    
      5000   5              300.74814      24001.41      -14.767582     -9.1547412      72028.152     -519961.26      156.28408      90.227528      133.71045      1885468        4.5541549      0.05           7.2028152    
      6000   6              300.91395      28396.686      8.4789911     -34.55633       85216.134     -519004.61      156.92856      90.604416      132.30297      1881139.3      4.5646344      0.06           8.5216134    
      7000   7              299.21614      32647.538      27.648695     -8.2208084      97923.187     -517891.74      157.61209      91.00045       130.89549      1877404.1      4.5737159      0.07           9.7923187    
      8000   8              299.44347      36701.32       63.024226      9.2752605      110031.66     -516569.91      158.35647      91.418752      129.48801      1874565.7      4.5806414      0.08           11.003166    
      9000   9              299.95772      40500.585      28.293676      30.720998      121442.74     -515120.94      159.12765      91.870049      128.08054      1872417.7      4.5858961      0.09           12.144274    
     10000   10             300.15534      44019.51      -8.5936356      65.544341      132001.58     -513477.82      159.95692      92.348196      126.67306      1871180.6      4.588928       0.1            13.200158    
     11000   11             300.74907      47244.469      72.043554      14.017873      141647.35     -511702.55      160.83461      92.850688      125.26558      1870666.6      4.5901889      0.11           14.164735    
     12000   12             299.47513      50095.645      148.91576      40.387799      150097.63     -509762.1       161.76017      93.391372      123.8581       1871124.9      4.5890647      0.12           15.009763    
     13000   13             299.46959      52497.442      119.25725      57.15597       157315.91     -507699.02      162.74363      93.962724      122.45062      1872494.7      4.5857075      0.13           15.731591    
     14000   14             300.4533       54395.019      106.45273      12.588774      163066.02     -505517.46      163.78371      94.572122      121.04314      1874882.4      4.5798677      0.14           16.306602    
     15000   15             299.24212      55708.393      132.37861     -36.000555      167028.8      -503214.56      164.91222      95.212453      119.63567      1878482.9      4.5710893      0.15           16.70288     
     16000   16             299.13543      55248.467      66.767516      267.0395       165411.59     -500801.12      166.19787      95.942801      118.22819      1885206.3      4.5547871      0.16           16.541159    
     17000   17             308.11142      46592.063      384.68514      334.7924       139056.71     -499052.6       168.14605      97.069663      116.82071      1906733.6      4.5033627      0.17           13.905671    
     18000   18             401.80474      26106.722      254.39381      397.01273      77668.759     -502206.33      170.72342      98.665091      115.41323      1944071.4      4.4168712      0.18           7.7668759    
     19000   19             341.26597      13196.492     -88.682338      67.155795      39611.003     -507493.54      171.71017      99.385383      114.00575      1945563        4.4134849      0.19           3.9611003    
     20000   20             299.89203      11372.882      16.504098     -176.70969      34278.852     -509365.87      172.47026      99.927055      112.59827      1940568.8      4.4248434      0.2            3.4278852    
     21000   21             298.97178      11777.282      104.58883      103.92503      35123.331     -509891.56      173.35682      100.49989      111.1908       1937204        4.4325291      0.21           3.5123331    
     22000   22             299.3201       12496.821      236.08904      158.07714      37096.297     -510130.86      174.2808       101.11474      109.78332      1934640.9      4.4384015      0.22           3.7096297    
     23000   23             300.31527      13005.509      198.36746      111.76876      38706.392     -510199.17      175.26148      101.76802      108.37584      1932993        4.4421853      0.23           3.8706392    
     24000   24             299.63047      13511.698      48.435874      12.802955      40473.856     -510163.22      176.26648      102.46057      106.96836      1931887.5      4.4447273      0.24           4.0473856    
     25000   25             300.37937      14284.132      64.090813      158.08078      42630.223     -510057.77      177.27922      103.16475      105.56088      1930599.4      4.4476928      0.25           4.2630223    
Loop time of 1505.11 on 1 procs for 25000 steps with 108000 atoms

Performance: 1.435 ns/day, 16.723 hours/ns, 16.610 timesteps/s, 1.794 Matom-step/s
98.9% CPU use with 1 MPI tasks x 1 OpenMP threads

MPI task timing breakdown:
Section |  min time  |  avg time  |  max time  |%varavg| %total
---------------------------------------------------------------
Pair    | 1473.4     | 1473.4     | 1473.4     |   0.0 | 97.89
Neigh   | 0.52062    | 0.52062    | 0.52062    |   0.0 |  0.03
Comm    | 4.6744     | 4.6744     | 4.6744     |   0.0 |  0.31
Output  | 2.0381     | 2.0381     | 2.0381     |   0.0 |  0.14
Modify  | 22.386     | 22.386     | 22.386     |   0.0 |  1.49
Other   |            | 2.1        |            |       |  0.14

Nlocal:         108000 ave      108000 max      108000 min
Histogram: 1 0 0 0 0 0 0 0 0 0
Nghost:          40706 ave       40706 max       40706 min
Histogram: 1 0 0 0 0 0 0 0 0 0
Neighs:    3.70831e+06 ave 3.70831e+06 max 3.70831e+06 min
Histogram: 1 0 0 0 0 0 0 0 0 0
FullNghs:  7.41662e+06 ave 7.41662e+06 max 7.41662e+06 min
Histogram: 1 0 0 0 0 0 0 0 0 0

Total # of neighbors = 7416620
Ave neighs/atom = 68.672407
Neighbor list builds = 154
Dangerous builds = 0
System init for write_data ...
System init for write_restart ...
Completed Ti 108k, 1e10 s^-1
Reference Lz after equilibration = 140.747842066746 Angstrom
Final compressive engineering strain = 0.249999999999999
Total wall time: 2:01:19
