LAMMPS (22 Jul 2025 - Update 6)
KOKKOS mode with Kokkos version 4.6.2 is enabled
  will use up to 1 GPU(s) per node
Kokkos::OpenMP::initialize WARNING: OMP_PROC_BIND environment variable not set
  In general, for best performance with OpenMP 4.0 or better set OMP_PROC_BIND=spread and OMP_PLACES=threads
  For best performance with OpenMP 3.1 set OMP_PROC_BIND=true
  For unit testing set OMP_PROC_BIND=false

MPI detected: For OpenMP binding to work as intended, MPI ranks must be bound to exclusive CPU sets.

  using 1 OpenMP thread(s) per MPI task
  using 1 OpenMP thread(s) per MPI task
Reading data file ...
  orthogonal box = (0 0 0) to (153.2865 88.5 140.4)
  1 by 1 by 1 MPI processor grid
  reading atoms ...
  108000 atoms
  read_data CPU = 0.108 seconds
Neighbor list info ...
  update: every = 1 steps, delay = 0 steps, check = yes
  max neighbors/atom: 2000, page size: 100000
  master list distance cutoff = 6.8
  ghost atom cutoff = 6.8
  binsize = 6.8, bins = 23 14 21
  2 neighbor lists, perpetual/occasional/extra = 2 0 0
  (1) pair meam/kk, perpetual
      attributes: full, newton on, kokkos_device
      pair build: full/bin/kk/device
      stencil: full/bin/3d
      bin: kk/device
  (2) pair meam/kk, perpetual, half/full from (1)
      attributes: half, newton on, kokkos_device
      pair build: halffull/newton/kk/device
      stencil: none
      bin: none
Setting up Verlet run ...
  Unit style    : metal
  Current step  : 0
  Time step     : 0.001
Per MPI rank memory allocation (min/avg/max) = 161 | 161 | 161 Mbytes
   Step          Time         Atoms         Temp          Press           Pxx            Pyy            Pzz           PotEng           Lx             Ly             Lz           Volume        Density    
         0   0                 108000   300            706.04155     -406.07436     -413.99371      2938.1927     -526245.07      153.2865       88.5           140.4          1904646        4.5082987    
      1000   1                 108000   271.35365     -12.941975     -1371.4528     -1282.8758      2615.5027     -522494.36      153.61221      88.688048      140.69833      1916813        4.4796822    
      2000   2                 108000   298.42238      152.64322     -1236.6361     -1193.9766      2888.5424     -521936.73      153.66487      88.718455      140.74657      1918785.3      4.4750777    
      3000   3                 108000   297.11254      32.469254     -1324.5475     -1296.9018      2718.8571     -522033.98      153.66005      88.71567       140.74215      1918604.6      4.4754992    
      4000   4                 108000   301.54587     -42.701127     -1365.2802     -1416.0032      2653.1799     -521986.47      153.66713      88.719757      140.74863      1918869.7      4.4748807    
      5000   5                 108000   297.70227      31.657589     -1316.6314     -1353.5898      2765.1939     -522030.35      153.65986      88.715561      140.74198      1918597.5      4.4755156    
      6000   6                 108000   300.51824      61.765041     -1323.3041     -1266.8932      2775.4925     -521985.16      153.6632       88.717488      140.74503      1918722.5      4.475224     
      7000   7                 108000   299.82118      94.907468     -1259.9997     -1219.7354      2764.4575     -522051.31      153.65644      88.713589      140.73885      1918469.6      4.4758141    
      8000   8                 108000   301.38098      322.8493      -1030.9549     -1034.7301      3034.2329     -522017.81      153.64845      88.708972      140.73152      1918170        4.476513     
      9000   9                 108000   299.62683      282.58091     -1098.2574     -1065.2079      3011.208      -522023.8       153.64949      88.709572      140.73247      1918209        4.4764222    
     10000   10                108000   300.40059      30.36321      -1309.3172     -1349.1413      2749.5481     -522021.76      153.66243      88.717047      140.74433      1918693.9      4.4752907    
     11000   11                108000   301.40359     -67.666158     -1438.7118     -1413.3836      2649.0969     -522035.4       153.66579      88.718983      140.7474       1918819.5      4.4749978    
     12000   12                108000   300.06909     -80.288617     -1439.7898     -1443.4861      2642.41       -522027.31      153.66644      88.71936       140.748        1918844        4.4749407    
     13000   13                108000   301.64956     -103.15784     -1463.7753     -1463.9951      2618.2969     -522025.07      153.66841      88.7205        140.74981      1918918        4.4747682    
     14000   14                108000   299.37601     -90.386543     -1410.6867     -1472.7217      2612.2488     -522034.37      153.66674      88.719536      140.74828      1918855.4      4.4749142    
     15000   15                108000   300.42763     -99.172633     -1459.2896     -1484.0618      2645.8335     -521999.1       153.66916      88.720932      140.7505       1918946        4.4747029    
     16000   16                108000   298.4719       184.6586      -1164.5299     -1211.5174      2930.0231     -522021.69      153.65357      88.711932      140.73622      1918362        4.476065     
     17000   17                108000   301.04771      218.92279     -1118.6593     -1203.0322      2978.4598     -522007.31      153.65458      88.712512      140.73714      1918399.7      4.4759772    
     18000   18                108000   299.29069      126.06387     -1221.3883     -1251.841       2851.4209     -522027.18      153.65699      88.713907      140.73935      1918490.2      4.475766     
     19000   19                108000   300.41579      77.489587     -1281.8341     -1273.3671      2787.67       -522010.65      153.66085      88.716134      140.74288      1918634.6      4.475429     
     20000   20                108000   299.72268      30.491584     -1353.9595     -1329.3763      2774.8106     -522028.74      153.66158      88.716557      140.74355      1918662.1      4.4753649    
     21000   21                108000   299.26809     -58.884648     -1399.4505     -1438.7617      2661.5583     -522007.04      153.66716      88.719777      140.74866      1918871        4.4748777    
     22000   22                108000   300.65729     -263.86781     -1610.1413     -1623.6516      2442.1895     -522024.03      153.67603      88.724898      140.75679      1919203.4      4.4741028    
     23000   23                108000   299.54813     -355.98223     -1697.4782     -1730.31        2359.8415     -522014.62      153.68096      88.727745      140.7613       1919388.1      4.4736722    
     24000   24                108000   300.13391     -147.98044     -1521.9559     -1517.5781      2595.5926     -522016.38      153.67029      88.721582      140.75153      1918988.2      4.4746045    
     25000   25                108000   299.91342     -7.9249571     -1373.2711     -1352.966       2702.4622     -522032.16      153.66283      88.717274      140.74469      1918708.7      4.4752564    
     26000   26                108000   301.5601       21.487811     -1318.837      -1356.1802      2739.4806     -522019.03      153.66303      88.717393      140.74488      1918716.4      4.4752384    
     27000   27                108000   299.31589      93.740294     -1279.2079     -1265.6691      2826.0979     -522025.56      153.65787      88.714411      140.74015      1918522.9      4.4756898    
     28000   28                108000   301.03051      198.76306     -1162.571      -1188.3449      2947.2051     -522010.17      153.65489      88.712693      140.73742      1918411.4      4.4759498    
     29000   29                108000   298.01831      249.13907     -1092.3187     -1134.1558      2973.8918     -522020.5       153.64994      88.709832      140.73289      1918225.9      4.4763828    
     30000   30                108000   300.18728      86.329491     -1300.7109     -1263.872       2823.5714     -521994.86      153.66122      88.716349      140.74322      1918648.6      4.4753964    
     31000   31                108000   299.10985     -59.304849     -1374.7206     -1428.6827      2625.4887     -522033.13      153.6648       88.718411      140.7465       1918782.4      4.4750844    
     32000   32                108000   300.90284     -77.129315     -1417.1227     -1469.5025      2655.2372     -522007.39      153.66822      88.720391      140.74964      1918910.9      4.4747848    
     33000   33                108000   299.55108     -78.247945     -1416.5797     -1432.8771      2614.7129     -522023.45      153.66655      88.719427      140.74811      1918848.3      4.4749307    
     34000   34                108000   299.9487      -110.96431     -1506.832      -1439.877       2613.816      -522010.45      153.66963      88.7212        140.75092      1918963.4      4.4746624    
     35000   35                108000   299.52344     -170.59281     -1558.6943     -1486.1711      2533.087      -522016.05      153.6717       88.7224        140.75282      1919041.3      4.4744808    
     36000   36                108000   300.03467     -122.82606     -1464.7764     -1478.4084      2574.7067     -522022.51      153.66887      88.720763      140.75023      1918935        4.4747284    
     37000   37                108000   300.24789      47.400637     -1285.1225     -1339.5641      2766.8885     -522013.06      153.66231      88.716977      140.74422      1918689.4      4.4753014    
     38000   38                108000   300.27661      170.30217     -1138.3483     -1236.1158      2885.3706     -522029.12      153.65514      88.712838      140.73766      1918420.9      4.4759277    
     39000   39                108000   300.35039      68.223576     -1287.4943     -1304.7768      2796.9418     -522019.63      153.66063      88.716006      140.74268      1918626.4      4.4754483    
     40000   40                108000   298.47669      35.730474     -1327.3156     -1317.9385      2752.4455     -522030.95      153.66045      88.715902      140.74252      1918619.6      4.4754641    
     41000   41                108000   300.72052      1.0853412     -1363.8343     -1332.0481      2699.1384     -522015.9       153.66445      88.718213      140.74618      1918769.6      4.4751143    
     42000   42                108000   300.48519     -6.0461825     -1393.7867     -1327.5915      2703.2397     -522040.26      153.66254      88.717106      140.74443      1918697.7      4.4752819    
     43000   43                108000   299.94778     -12.905641     -1385.9454     -1387.6934      2734.9219     -522002.95      153.66538      88.718746      140.74703      1918804.1      4.4750337    
     44000   44                108000   299.97058      26.768978     -1346.9461     -1302.8207      2730.0737     -522017.65      153.66279      88.717254      140.74466      1918707.3      4.4752595    
     45000   45                108000   299.22063      128.95756     -1275.0894     -1232.7488      2894.7109     -522014.25      153.65795      88.714462      140.74023      1918526.2      4.4756821    
     46000   46                108000   301.04504      194.8669      -1161.7382     -1171.4689      2917.8077     -522024.47      153.65465      88.712556      140.73721      1918402.6      4.4759705    
     47000   47                108000   299.83013      223.80062     -1185.0083     -1104.1614      2960.5716     -522023.17      153.6529       88.711544      140.7356       1918336.9      4.4761236    
     48000   48                108000   300.7316       75.573786     -1297.5238     -1273.0694      2797.3146     -522021.27      153.66076      88.716082      140.7428       1918631.3      4.4754368    
     49000   49                108000   300.31255     -63.636139     -1408.715      -1429.5962      2647.4028     -522027.06      153.6662       88.719223      140.74778      1918835.1      4.4749614    
     50000   50                108000   300.17397     -57.112888     -1392.3343     -1447.392       2668.3876     -522008.9       153.66745      88.719944      140.74893      1918881.9      4.4748524    
     51000   51                108000   300.04193     -68.407594     -1424.9501     -1434.1794      2653.9067     -522031.58      153.66656      88.719431      140.74811      1918848.6      4.47493      
     52000   52                108000   299.26026     -112.1331      -1492.3747     -1497.6189      2653.5944     -522044.55      153.66713      88.719756      140.74863      1918869.7      4.4748808    
     53000   53                108000   299.78521     -130.10469     -1490.6955     -1477.2884      2577.6698     -522014.8       153.67072      88.72183       140.75192      1919004.3      4.474567     
     54000   54                108000   299.82438      2.5424609     -1333.5688     -1392.5082      2733.7043     -522015.99      153.66388      88.717885      140.74566      1918748.3      4.475164     
     55000   55                108000   300.80165      116.59385     -1229.7291     -1272.9497      2852.4604     -522031.19      153.65759      88.714251      140.7399       1918512.5      4.4757139    
     56000   56                108000   300.42119      209.89302     -1171.8775     -1143.1365      2944.6931     -522003.9       153.65607      88.713374      140.73851      1918455.6      4.4758467    
     57000   57                108000   299.68319      117.91951     -1250.3783     -1265.5631      2869.6999     -522020.44      153.65793      88.714445      140.7402       1918525.1      4.4756846    
     58000   58                108000   300.48352      28.23106      -1335.5095     -1361.4358      2781.6385     -522006.67      153.66361      88.717728      140.74541      1918738.1      4.4751878    
     59000   59                108000   299.13541      16.247399     -1359.8767     -1316.2328      2724.8518     -522020.96      153.6631       88.717433      140.74494      1918719        4.4752323    
     60000   60                108000   299.28335      4.1176511     -1381.3555     -1331.6886      2725.397      -522015.08      153.66353      88.717678      140.74533      1918734.8      4.4751954    
     61000   61                108000   299.62768     -40.336506     -1424.1302     -1401.118       2704.2387     -522011.28      153.66574      88.718959      140.74737      1918818        4.4750015    
     62000   62                108000   299.5755      -152.24292     -1485.202      -1525.1742      2553.6474     -522031.42      153.66986      88.721334      140.75113      1918972.1      4.4746421    
     63000   63                108000   299.67607     -199.75368     -1537.424      -1577.9366      2516.0996     -522025.25      153.67258      88.722907      140.75363      1919074.1      4.4744041    
     64000   64                108000   299.52501     -164.72328     -1491.1147     -1558.4977      2555.4426     -522015.14      153.67181      88.722461      140.75292      1919045.2      4.4744716    
     65000   65                108000   301.41446     -22.064884     -1360.0509     -1412.259       2706.1153     -522003.9       153.6665       88.719397      140.74806      1918846.4      4.4749352    
     66000   66                108000   300.09657      111.59565     -1256.6152     -1244.3065      2835.7087     -522015.4       153.65877      88.714931      140.74098      1918556.6      4.475611     
     67000   67                108000   299.09274      106.98631     -1247.4089     -1260.7358      2829.1037     -522041.33      153.65666      88.713715      140.73905      1918477.7      4.4757951    
     68000   68                108000   300.29445      89.928091     -1315.6192     -1213.6814      2799.0849     -522011.76      153.66         88.71564       140.7421       1918602.6      4.4755038    
     69000   69                108000   299.29073      107.07843     -1256.8639     -1258.6254      2836.7246     -521997.8       153.66101      88.716224      140.74303      1918640.5      4.4754154    
     70000   70                108000   299.10744      30.352201     -1305.4595     -1357.6024      2754.1186     -522011.06      153.66334      88.717571      140.74516      1918727.9      4.4752115    
     71000   71                108000   299.6698      -140.44277     -1488.0147     -1494.2495      2560.9359     -522002.42      153.67173      88.722414      140.75285      1919042.1      4.4744787    
     72000   72                108000   299.42403     -169.63885     -1498.1768     -1541.036       2530.2962     -522021.87      153.67188      88.722503      140.75299      1919047.9      4.4744652    
     73000   73                108000   301.02157     -134.53562     -1477.532      -1493.7977      2567.7229     -522006.85      153.6722       88.722685      140.75328      1919059.7      4.4744377    
     74000   74                108000   299.47852     -85.074845     -1467.5333     -1402.6512      2614.96       -522010.12      153.66888      88.720766      140.75023      1918935.2      4.474728     
     75000   75                108000   299.79993     -30.150663     -1408.1061     -1382.7665      2700.4207     -522003.76      153.66639      88.71933       140.74795      1918842        4.4749453    
     76000   76                108000   299.26061      4.3237277     -1371.5987     -1348.1575      2732.7274     -522039.14      153.66193      88.716758      140.74387      1918675.2      4.4753344    
     77000   77                108000   299.90973      69.617087     -1293.4217     -1302.0867      2804.3596     -522018.89      153.66061      88.715992      140.74266      1918625.4      4.4754505    
     78000   78                108000   300.86152      251.97552     -1124.3153     -1078.6312      2958.8731     -522029.23      153.65221      88.711142      140.73496      1918310.8      4.4761845    
     79000   79                108000   299.19216      293.80181     -1073.4272     -1071.1618      3025.9944     -522043.35      153.64761      88.708487      140.73075      1918138.6      4.4765865    
     80000   80                108000   300.50085      103.10493     -1279.8549     -1218.4014      2807.5711     -522030.03      153.65887      88.714993      140.74107      1918560.6      4.4756017    
     81000   81                108000   301.00778     -5.0475539     -1339.9613     -1356.0853      2680.904      -522022.8       153.66441      88.718187      140.74614      1918767.9      4.4751182    
     82000   82                108000   300.95359     -17.481403     -1386.1813     -1374.4797      2708.2168     -522015.02      153.66542      88.718773      140.74707      1918805.9      4.4750296    
     83000   83                108000   299.73846     -19.774591     -1359.2971     -1395.2901      2695.2634     -522032.21      153.66314      88.717456      140.74498      1918720.4      4.475229     
     84000   84                108000   300.69687     -38.204525     -1429.5469     -1358.2609      2673.1942     -522002.6       153.66708      88.719728      140.74859      1918867.9      4.4748851    
     85000   85                108000   300.4004      -82.664642     -1442.2871     -1438.5902      2632.8834     -522033.49      153.66703      88.7197        140.74854      1918866.1      4.4748893    
     86000   86                108000   299.68545     -41.586277     -1403.9262     -1399.6701      2678.8374     -522009.81      153.66646      88.719372      140.74802      1918844.8      4.4749389    
     87000   87                108000   299.20879      49.016001     -1321.6261     -1282.368       2751.0421     -522036.87      153.6603       88.715814      140.74238      1918613.9      4.4754774    
     88000   88                108000   300.03849      218.50605     -1164.6425     -1117.91        2938.0707     -522020.14      153.65341      88.711839      140.73607      1918356        4.476079     
     89000   89                108000   301.00079      238.43569     -1149.3562     -1092.1743      2956.8375     -522030.52      153.65233      88.711214      140.73508      1918315.5      4.4761737    
     90000   90                108000   299.45026      98.532094     -1263.4755     -1269.0214      2828.0931     -522038.64      153.65728      88.714071      140.73961      1918500.8      4.4757412    
     91000   91                108000   300.10218      59.687011     -1242.9479     -1334.1712      2756.1802     -522010.66      153.66164      88.716586      140.7436       1918664        4.4753605    
     92000   92                108000   298.65828      63.170724     -1269.781      -1308.4058      2767.699      -522019.34      153.66025      88.715785      140.74233      1918612.1      4.4754817    
     93000   93                108000   300.53692     -31.892611     -1410.7867     -1359.4056      2674.5144     -522016.03      153.66567      88.718915      140.7473       1918815.1      4.4750082    
     94000   94                108000   300.05036     -210.25763     -1600.3407     -1531.6328      2501.2006     -522015.28      153.67384      88.723632      140.75478      1919121.2      4.4742944    
     95000   95                108000   299.66647     -240.21445     -1624.6759     -1554.3699      2458.4025     -522017.2       153.67517      88.724403      140.756        1919171.2      4.4741778    
     96000   96                108000   300.01902     -186.79423     -1572.491      -1525.878       2537.9862     -522035.54      153.67152      88.722293      140.75265      1919034.3      4.474497     
     97000   97                108000   299.93927     -43.775606     -1353.885      -1422.1752      2644.7333     -522020.19      153.66634      88.719304      140.74791      1918840.4      4.4749492    
     98000   98                108000   300.08674      21.216872     -1304.5268     -1348.5677      2716.7451     -522014.89      153.66339      88.717599      140.74521      1918729.7      4.4752073    
     99000   99                108000   299.89914      35.907554     -1323.5167     -1336.1505      2767.3899     -522009.93      153.66282      88.717272      140.74469      1918708.5      4.4752567    
    100000   100               108000   301.27003      36.390724     -1362.7618     -1336.3399      2808.274      -522014.76      153.6628       88.717262      140.74467      1918707.8      4.4752583    
Loop time of 5853.61 on 1 procs for 100000 steps with 108000 atoms

Performance: 1.476 ns/day, 16.260 hours/ns, 17.083 timesteps/s, 1.845 Matom-step/s
99.0% CPU use with 1 MPI tasks x 1 OpenMP threads

MPI task timing breakdown:
Section |  min time  |  avg time  |  max time  |%varavg| %total
---------------------------------------------------------------
Pair    | 5754.2     | 5754.2     | 5754.2     |   0.0 | 98.30
Neigh   | 0.0032995  | 0.0032995  | 0.0032995  |   0.0 |  0.00
Comm    | 18.125     | 18.125     | 18.125     |   0.0 |  0.31
Output  | 0.06919    | 0.06919    | 0.06919    |   0.0 |  0.00
Modify  | 72.019     | 72.019     | 72.019     |   0.0 |  1.23
Other   |            | 9.184      |            |       |  0.16

Nlocal:         108000 ave      108000 max      108000 min
Histogram: 1 0 0 0 0 0 0 0 0 0
Nghost:          38158 ave       38158 max       38158 min
Histogram: 1 0 0 0 0 0 0 0 0 0
Neighs:    3.70751e+06 ave 3.70751e+06 max 3.70751e+06 min
Histogram: 1 0 0 0 0 0 0 0 0 0
FullNghs:  7.41502e+06 ave 7.41502e+06 max 7.41502e+06 min
Histogram: 1 0 0 0 0 0 0 0 0 0

Total # of neighbors = 7415022
Ave neighs/atom = 68.657611
Neighbor list builds = 1
Dangerous builds = 0
System init for write_data ...
System init for write_restart ...
WARNING: No fixes with time integration, atoms won't move
For more information see https://docs.lammps.org/err0028 (src/verlet.cpp:60)
Setting up Verlet run ...
  Unit style    : metal
  Current step  : 0
  Time step     : 0.001
Per MPI rank memory allocation (min/avg/max) = 161 | 161 | 161 Mbytes
   Step          Time         Atoms         Temp          Press           Pxx            Pyy            Pzz           PotEng           Lx             Ly             Lz           Volume        Density    
         0   0                 108000   301.27003      36.390724     -1362.7618     -1336.3399      2808.274      -522014.76      153.6628       88.717262      140.74467      1918707.8      4.4752583    
Loop time of 0.000664217 on 1 procs for 0 steps with 108000 atoms

WARNING: New thermo_style command, previous thermo_modify settings will be lost (src/output.cpp:912)
Setting up Verlet run ...
  Unit style    : metal
  Current step  : 0
  Time step     : 0.001
Per MPI rank memory allocation (min/avg/max) = 161 | 161 | 161 Mbytes
   Step          Time           Temp          Press           Pxx            Pyy            Pzz           PotEng           Lx             Ly             Lz           Volume        Density        v_strain       v_sigzz    
         0   0              301.27003      36.390724     -1362.7618     -1336.3399      2808.274      -522014.76      153.6628       88.717262      140.74467      1918707.8      4.4752583     -1.6155047e-15  0.2808274    
      1000   1              300.79761      1444.3927     -240.28756     -227.62644      4801.0921     -522057.28      153.63711      88.699759      140.60393      1916090.5      4.4813714      0.001          0.48010921   
      2000   2              299.86075      2113.1171      45.359139      0.92975862     6293.0623     -522035.41      153.66575      88.722683      140.46318      1915024.1      4.483867       0.002          0.62930623   
      3000   3              300.17046      2666.7418      135.64194      138.25886      7726.3246     -522026.37      153.71188      88.743378      140.32244      1914126        4.4859707      0.003          0.77263246   
      4000   4              299.64332      3295.742       322.35896      358.09738      9206.7697     -522039.05      153.74286      88.763047      140.18169      1913015.4      4.4885751      0.004          0.92067697   
      5000   5              299.40556      3666.5723      223.37142      211.03521      10565.31      -522016.66      153.79951      88.793833      140.04095      1912462        4.489874       0.005          1.056531     
      6000   6              300.12888      3867.6897     -68.734269     -48.226089      11720.029     -522018.4       153.87077      88.829424      139.9002       1912191.2      4.4905096      0.006          1.1720029    
      7000   7              300.48642      4241.8468     -243.55202     -93.631933      13062.724     -521996.81      153.93129      88.85929       139.75946      1911661.3      4.4917545      0.007          1.3062724    
      8000   8              299.59275      4645.1559     -290.83145     -140.39116      14366.69      -521988.98      153.97948      88.890971      139.61872      1911015.2      4.4932731      0.008          1.436669     
      9000   9              300.38973      5140.4205     -182.55316     -170.61822      15774.433     -521955.35      154.02773      88.918937      139.47797      1910287.8      4.494984       0.009          1.5774433    
     10000   10             300.86735      5824.2798      100.54724      60.628528      17311.664     -521963.98      154.05046      88.941518      139.33723      1909126.4      4.4977184      0.01           1.7311664    
     11000   11             298.81604      6333.1415      42.66492       223.01691      18733.743     -521954.67      154.10744      88.959513      139.19648      1908289.5      4.4996911      0.011          1.8733743    
     12000   12             299.85663      6819.8645      252.00787      87.253651      20120.332     -521920.98      154.13487      89.001712      139.05574      1907603.7      4.5013087      0.012          2.0120332    
     13000   13             300.01184      7266.2502      240.89719      78.943         21478.911     -521907.79      154.17825      89.034616      138.91499      1906914.1      4.5029365      0.013          2.1478911    
     14000   14             300.35795      7559.3006      106.27563     -189.59752      22761.224     -521896.16      154.22637      89.076735      138.77425      1906478        4.5039665      0.014          2.2761224    
     15000   15             299.88796      7995.252       42.634573     -166.75412      24109.876     -521866.01      154.29496      89.098535      138.6335       1905857.9      4.5054321      0.015          2.4109876    
     16000   16             299.3617       8423.6329     -91.821253     -86.12414       25448.844     -521849.16      154.35342      89.124893      138.49276      1905207.8      4.5069694      0.016          2.5448844    
     17000   17             300.18558      8897.0779     -32.91663      -137.01257      26861.163     -521817.19      154.40662      89.153915      138.35201      1904547.6      4.5085318      0.017          2.6861163    
     18000   18             299.54638      9364.972      -226.07302      103.5607       28217.428     -521771.98      154.49216      89.165772      138.21127      1903917.3      4.5100243      0.018          2.8217428    
     19000   19             299.64245      9893.4267     -265.83834      294.40817      29651.71      -521761.1       154.55129      89.183954      138.07052      1903094.4      4.5119743      0.019          2.965171     
     20000   20             301.34068      10366.296     -115.41272      166.8758       31047.425     -521717.28      154.58557      89.223653      137.92978      1902422.6      4.5135677      0.02           3.1047425    
     21000   21             299.54653      10883.178      21.33592       160.0092       32468.189     -521683.13      154.62192      89.258362      137.78903      1901667.7      4.5153595      0.021          3.2468189    
     22000   22             299.15852      11382.39       74.350548      182.61872      33890.199     -521637.34      154.66596      89.292559      137.64829      1900994.4      4.5169587      0.022          3.3890199    
     23000   23             300.69613      11852.736      322.0985      -46.020966      35282.13      -521603.01      154.69076      89.338856      137.50755      1900340        4.5185143      0.023          3.528213     
     24000   24             300.95302      12214.721      133.02579     -71.327146      36582.463     -521599.19      154.74842      89.371612      137.3668       1899798.7      4.5198015      0.024          3.6582463    
     25000   25             300.18065      12668.749      241.99364     -178.4179       37942.67      -521527.88      154.7964       89.409874      137.22606      1899253.5      4.521099       0.025          3.794267     
     26000   26             300.38509      13047.658      0.69534474    -96.48427       39238.764     -521499.27      154.86784      89.435936      137.08531      1898734.5      4.5223349      0.026          3.9238764    
     27000   27             300.1025       13529.177      129.97628     -194.3031       40651.857     -521458.36      154.91688      89.468266      136.94457      1898071.5      4.5239146      0.027          4.0651857    
     28000   28             300.07265      13921.278     -80.138457     -118.80504      41962.779     -521407.16      154.99404      89.491722      136.80382      1897562.5      4.5251279      0.028          4.1962779    
     29000   29             300.2037       14363.452     -170.4067      -65.36569       43326.128     -521358.14      155.06429      89.516739      136.66308      1896999.6      4.5264707      0.029          4.3326128    
     30000   30             300.3824       14819.446     -147.05169     -113.87679      44719.265     -521300.95      155.12071      89.549874      136.52233      1896437.2      4.5278131      0.03           4.4719265    
     31000   31             300.71976      15307.777     -236.47149      47.358981      46112.445     -521259.38      155.18129      89.576287      136.38159      1895781        4.5293803      0.031          4.6112445    
     32000   32             299.70167      15713.974     -241.95174     -50.608038      47434.481     -521196.34      155.25274      89.603997      136.24084      1895282.6      4.5305715      0.032          4.7434481    
     33000   33             300.59916      16231.748     -279.60174      88.169857      48886.675     -521150.79      155.31246      89.629074      136.1001       1894583        4.5322444      0.033          4.8886675    
     34000   34             299.73495      16793.026     -59.213681      119.5336       50318.759     -521072.77      155.34054      89.672724      135.95935      1893887.9      4.5339079      0.034          5.0318759    
     35000   35             299.92635      17270.315      119.15483     -1.0196181      51692.811     -521036.63      155.37778      89.712375      135.81861      1893217.6      4.5355131      0.035          5.1692811    
     36000   36             300.33429      17782.78       58.009181      153.47036      53136.861     -520948.02      155.44801      89.737596      135.67786      1892642.5      4.5368912      0.036          5.3136861    
     37000   37             300.46326      18237.533      18.768702      208.49695      54485.334     -520918.4       155.50112      89.769383      135.53712      1891995.1      4.5384437      0.037          5.4485334    
     38000   38             300.28705      18617.261      153.8955      -78.989702      55776.877     -520858.84      155.5453       89.815863      135.39638      1891546.3      4.5395204      0.038          5.5776877    
     39000   39             299.37017      19103.185      130.57564      31.344596      57147.635     -520765.46      155.60623      89.849829      135.25563      1891035        4.5407478      0.039          5.7147635    
     40000   40             297.97292      19638.35       206.35736      94.299839      58614.394     -520720.7       155.65362      89.879928      135.11489      1890275.6      4.5425721      0.04           5.8614394    
     41000   41             300.64949      20184.282      381.37283      139.92108      60031.551     -520640.44      155.70298      89.917059      134.97414      1889685.7      4.5439901      0.041          6.0031551    
     42000   42             300.09482      20653.488      409.04611      142.84246      61408.577     -520590.02      155.75544      89.949268      134.8334       1889027.7      4.5455729      0.042          6.1408577    
     43000   43             300.94238      21030.64       279.43996      141.46547      62671.015     -520489.72      155.83423      89.983885      134.69265      1888737.1      4.5462723      0.043          6.2671015    
     44000   44             300.30251      21429.14       163.9917       133.27219      63990.158     -520440.82      155.90044      90.015849      134.55191      1888235.6      4.5474798      0.044          6.3990158    
     45000   45             299.13294      21886.37       119.48333      159.00392      65380.623     -520335.16      155.96799      90.049443      134.41116      1887782        4.5485725      0.045          6.5380623    
     46000   46             301.12507      22366.569      187.74359      172.52057      66739.443     -520263.55      156.02558      90.085803      134.27042      1887263.4      4.5498224      0.046          6.6739443    
     47000   47             300.79552      22964.474      343.79079      354.81088      68194.819     -520216.14      156.08216      90.105958      134.12967      1886390.7      4.5519272      0.047          6.8194819    
     48000   48             299.58275      23385.697      238.38367      402.06639      69516.641     -520132.26      156.15234      90.138062      133.98893      1885930.3      4.5530386      0.048          6.9516641    
     49000   49             300.13283      23723.325      200.8605       221.55492      70747.56      -520039.15      156.21204      90.186527      133.84818      1885682.8      4.553636       0.049          7.074756     
     50000   50             300.10698      24079.488      34.005473      170.5168       72033.942     -519941.07      156.29482      90.220452      133.70744      1885407.1      4.5543019      0.05           7.2033942    
     51000   51             300.70958      24507.844     -77.422981      254.45994      73346.495     -519875.15      156.37045      90.248763      133.56669      1884925.3      4.5554661      0.051          7.3346495    
     52000   52             299.48684      25000.012      61.400506      235.61739      74703.018     -519756.69      156.42349      90.291152      133.42595      1884462.3      4.5565852      0.052          7.4703018    
     53000   53             299.36358      25561.162      50.711334      485.36433      76147.41      -519685.83      156.49372      90.311114      133.28521      1883736.1      4.5583418      0.053          7.614741     
     54000   54             300.88229      25978.46       65.924926      465.25874      77404.198     -519599.82      156.55971      90.349576      133.14446      1883342.2      4.5592953      0.054          7.7404198    
     55000   55             299.38479      26311.464      69.034951      219.0097       78646.348     -519483.75      156.61677      90.400936      133.00372      1883106.8      4.5598651      0.055          7.8646348    
     56000   56             301.12368      26660.573      46.565655      85.292801      79849.86      -519387.7       156.67975      90.447849      132.86297      1882847.2      4.560494       0.056          7.984986     
     57000   57             299.81641      27108.217      7.5482508      135.52993      81181.574     -519305.12      156.74347      90.482828      132.72223      1882345.3      4.5617099      0.057          8.1181574    
     58000   58             300.5317       27589.344      53.253813      167.37955      82547.398     -519201.69      156.80447      90.521777      132.58148      1881890.6      4.562812       0.058          8.2547398    
     59000   59             300.96547      28162.776      237.50762      306.92121      83943.899     -519110.56      156.84995      90.558119      132.44074      1881193.1      4.5645039      0.059          8.3943899    
     60000   60             300.894        28605.323      273.47054      291.07655      85251.423     -519003.03      156.91578      90.597539      132.29999      1880800.9      4.5654557      0.06           8.5251423    
     61000   61             300.69208      28892.993      189.41943      62.711424      86426.849     -518896.87      156.98568      90.64628       132.15925      1880648.3      4.5658262      0.061          8.6426849    
     62000   62             299.15673      29257.339      124.55476     -15.412552      87662.874     -518794.77      157.06273      90.683931      132.0185       1880348.2      4.5665548      0.062          8.7662874    
     63000   63             300.60717      29645.299      97.646202     -60.026894      88898.277     -518683.72      157.12942      90.728346      131.87776      1880061.5      4.5672513      0.063          8.8898277    
     64000   64             300.13503      29944.441     -11.837291     -207.11037      90052.269     -518564.53      157.19437      90.779552      131.73701      1879891.7      4.5676636      0.064          9.0052269    
     65000   65             299.74705      30346.519     -88.73291      -166.69652      91294.987     -518458.54      157.27529      90.812655      131.59627      1879535.1      4.5685303      0.065          9.1294987    
     66000   66             301.58893      30746.172     -132.23944     -170.00846      92540.765     -518344.55      157.34959      90.85378       131.45552      1879262.5      4.5691931      0.066          9.2540765    
     67000   67             300.60542      31137.063     -311.78167     -60.203685      93783.175     -518243.46      157.44104      90.880346      131.31478      1878890.8      4.570097       0.067          9.3783175    
     68000   68             300.63312      31503.394     -406.39088     -73.200209      94989.773     -518098.96      157.52824      90.919504      131.17404      1878725.7      4.5704987      0.068          9.4989773    
     69000   69             299.80666      32006.56      -187.18242     -120.73059      96327.593     -518015.74      157.56688      90.965792      131.03329      1878125.8      4.5719584      0.069          9.6327593    
     70000   70             300.65534      32522.373     -106.02452      18.234681      97654.908     -517868.44      157.63404      91.004531      130.89255      1877707.4      4.5729771      0.07           9.7654908    
     71000   71             298.70087      32970.809     -16.338671      9.7165113      98919.048     -517755.27      157.70672      91.039756      130.7518       1877279.6      4.5740194      0.071          9.8919048    
     72000   72             299.35795      33369.992     -44.612606      36.950651      100117.64     -517607.36      157.78649      91.081782      130.61106      1877073.5      4.5745217      0.072          10.011764    
     73000   73             298.44877      33792.018     -66.601276      81.34982       101361.31     -517519.7       157.8519       91.120417      130.47031      1876623.8      4.5756178      0.073          10.136131    
     74000   74             301.07528      34268.795      21.347935      156.15158      102628.88     -517375.18      157.91974      91.163631      130.32957      1876294.5      4.5764209      0.074          10.262888    
     75000   75             298.73513      34671.549      80.751592      63.434822      103870.46     -517240.56      157.9777       91.213981      130.18882      1875991.6      4.5771597      0.075          10.387046    
     76000   76             300.25554      35026.911      41.046529      1.548275       105038.14     -517110.55      158.04963      91.260823      130.04808      1875779.6      4.577677       0.076          10.503814    
     77000   77             300.22851      35314.508      138.96935     -268.65983      106073.21     -516995.17      158.10992      91.318633      129.90733      1875651.6      4.5779893      0.077          10.607321    
     78000   78             299.87694      35710.827      152.66236     -323.06873      107302.89     -516863.38      158.15925      91.37494       129.76659      1875359.7      4.5787019      0.078          10.730289    
     79000   79             300.32658      36169.922     -3.7249189     -43.118819      108556.61     -516715.56      158.27573      91.390583      129.62584      1875026.3      4.5795162      0.079          10.855661    
     80000   80             300.21366      36642.552      169.59951     -83.851421      109841.91     -516581.48      158.33458      91.436935      129.4851       1874637.2      4.5804666      0.08           10.984191    
     81000   81             301.20107      37086.803      250.58748     -42.918547      111052.74     -516425.97      158.40684      91.481008      129.34435      1874357.1      4.581151       0.081          11.105274    
     82000   82             299.29201      37526.39       209.51718      89.317798      112280.33     -516299.49      158.47806      91.520838      129.20361      1873974.9      4.5820855      0.082          11.228033    
     83000   83             299.82876      37850.677      125.62093      72.760063      113353.65     -516145.22      158.58021      91.558345      129.06286      1873907.8      4.5822495      0.083          11.335365    
     84000   84             298.62884      38093.609     -147.69474      77.718909      114350.8      -516013.94      158.68635      91.594433      128.92212      1873855.4      4.5823776      0.084          11.43508     
     85000   85             300.90572      38444.483     -148.07883      13.25857       115468.27     -515867.77      158.75718      91.646824      128.78138      1873716.4      4.5827177      0.085          11.546827    
     86000   86             299.53242      38856.282      10.218184     -79.055596      116637.68     -515729.91      158.80893      91.703066      128.64063      1873427.7      4.5834238      0.086          11.663768    
     87000   87             299.58761      39196.007     -6.0054818     -122.36439      117716.39     -515574.26      158.89988      91.745044      128.49989      1873306.9      4.5837195      0.087          11.771639    
     88000   88             299.51643      39631.368     -173.38537      166.51525      118900.98     -515407.34      159.00932      91.770486      128.35914      1873063.1      4.584316       0.088          11.890098    
     89000   89             301.13848      40061.952     -136.06892      253.74553      120068.18     -515257.19      159.09581      91.807863      128.2184       1872789.5      4.5849858      0.089          12.006818    
     90000   90             300.02145      40405.69      -86.996203      161.31725      121142.75     -515111.61      159.15914      91.863535      128.07765      1872613.3      4.5854172      0.09           12.114275    
     91000   91             299.91583      40743.31      -66.032265      88.821596      122207.14     -514945.7       159.22889      91.919453      127.93691      1872514.3      4.5856597      0.091          12.220714    
     92000   92             301.01075      41091.948      48.675791     -82.359108      123309.53     -514791.4       159.28844      91.980115      127.79616      1872388.7      4.5859672      0.092          12.330953    
     93000   93             300.05699      41356.834      122.09045     -322.27743      124270.69     -514638.26      159.34538      92.046375      127.65542      1872343        4.586079       0.093          12.427069    
     94000   94             301.39823      41768.635      89.824675     -210.72922      125426.81     -514483.08      159.44212      92.082586      127.51467      1872150.3      4.5865511      0.094          12.542681    
     95000   95             299.73051      42148.491      3.5030334     -52.446859      126494.42     -514314.98      159.53252      92.123057      127.37393      1871966.7      4.5870012      0.095          12.649442    
     96000   96             300.4932       42580.025      86.685969      17.473805      127635.91     -514149.05      159.62552      92.159219      127.23318      1871722.7      4.5875991      0.096          12.763591    
     97000   97             300.76743      42858.585     -280.36893      281.51091      128574.61     -513964.24      159.75934      92.185806      127.09244      1871759.4      4.587509       0.097          12.857461    
     98000   98             299.84587      43119.136     -124.97138     -48.526084      129530.91     -513828.6       159.82678      92.246342      126.95169      1871704.2      4.5876445      0.098          12.953091    
     99000   99             301.0276       43483.795     -111.75891     -34.166027      130597.31     -513654.68      159.88682      92.307688      126.81095      1871575.2      4.5879605      0.099          13.059731    
    100000   100            299.0466       43899.7        68.785742     -24.548817      131654.86     -513491.89      159.94901      92.362577      126.67021      1871337.3      4.5885438      0.1            13.165486    
    101000   101            300.58614      44374.376      203.36501      99.466797      132820.3      -513305.01      160.02955      92.405975      126.52946      1871078        4.5891796      0.101          13.28203     
    102000   102            298.34941      44623.689      144.3858       51.992662      133674.69     -513133.64      160.11939      92.459347      126.38872      1871126.1      4.5890617      0.102          13.367469    
    103000   103            300.15221      44825.086     -210.96678      151.20482      134535.02     -512954.51      160.2617       92.488858      126.24797      1871300.7      4.5886335      0.103          13.453502    
    104000   104            299.37575      45148.39      -165.53969      80.260824      135530.45     -512789.15      160.33807      92.542495      126.10723      1871189.7      4.5889057      0.104          13.553045    
    105000   105            299.62942      45417.193     -94.903529     -67.259332      136413.74     -512608.6       160.40763      92.608257      125.96648      1871241        4.5887799      0.105          13.641374    
    106000   106            299.66792      45860.264      257.1185      -185.56952      137509.24     -512416.87      160.44711      92.679598      125.82574      1871050.6      4.5892469      0.106          13.750924    
    107000   107            299.25146      46193.909      32.210229      87.091614      138462.43     -512241.67      160.56747      92.708522      125.68499      1870943.4      4.5895098      0.107          13.846243    
    108000   108            298.76342      46490.69      -31.543222      89.240047      139414.37     -512063.98      160.67159      92.751866      125.54425      1870934.4      4.5895319      0.108          13.941437    
    109000   109            300.72777      46723.039     -92.284746      16.283905      140245.12     -511873.17      160.77716      92.802215      125.4035       1871080        4.5891748      0.109          14.024512    
    110000   110            298.42689      46862.308     -66.169523     -308.69948      140961.79     -511703.31      160.83342      92.884004      125.26276      1871281.8      4.5886798      0.11           14.096179    
    111000   111            301.07794      47489.711      340.24277     -86.989311      142215.88     -511518.6       160.88351      92.935112      125.12201      1870790.2      4.5898857      0.111          14.221588    
    112000   112            300.33174      47797.141      165.86601      82.686651      143142.87     -511327.46      161.00553      92.968214      124.98127      1870769.2      4.5899373      0.112          14.314287    
    113000   113            301.22454      47901.012     -88.158928      12.447022      143778.75     -511110.5       161.13547      93.01824       124.84052      1871177        4.588937       0.113          14.377875    
    114000   114            299.72751      48055.647     -252.93736     -61.477086      144481.36     -510941.98      161.24821      93.067388      124.69978      1871363.3      4.5884801      0.114          14.448136    
    115000   115            300.28734      48523.229      183.55759     -163.73122      145549.86     -510751.78      161.2609       93.152734      124.55904      1871112.6      4.5890949      0.115          14.554986    
    116000   116            300.18172      48990.461      321.52831      61.228163      146588.63     -510554.5       161.35719      93.189691      124.41829      1870856.3      4.5897235      0.116          14.658863    
    117000   117            300.78027      49022.16      -54.564224     -44.585719      147165.63     -510366.33      161.49697      93.236771      124.27755      1871303.6      4.5886264      0.117          14.716563    
    118000   118            301.09337      49155.999     -278.73775     -86.741378      147833.48     -510166.39      161.61953      93.287536      124.1368       1871621.5      4.5878471      0.118          14.783348    
    119000   119            301.37794      49707.912      31.587026      139.62273      148952.53     -509984.56      161.67776      93.336576      123.99606      1871156.1      4.5889881      0.119          14.895253    
    120000   120            300.31957      49951.384      120.24417      59.248335      149674.66     -509776.02      161.7585       93.404175      123.85531      1871319.9      4.5885864      0.12           14.967466    
    121000   121            299.23279      49840.852     -192.22248     -350.89297      150065.67     -509569.27      161.86956      93.481646      123.71457      1872028.1      4.5868505      0.121          15.006567    
    122000   122            300.10278      50299.49       36.903475     -176.23166      151037.8      -509380.1       161.95091      93.527958      123.57382      1871765        4.5874954      0.122          15.10378     
    123000   123            299.46616      50799.564      85.122381      196.98114      152116.59     -509167.77      162.07281      93.551394      123.43308      1871509.3      4.5881221      0.123          15.211659    
    124000   124            299.32472      50841.178     -86.968589     -10.580904      152621.08     -508962.39      162.17729      93.620296      123.29233      1871958        4.5870222      0.124          15.262108    
    125000   125            300.2046       50960.145     -31.816938     -275.87452      153188.13     -508743.13      162.25734      93.701037      123.15159      1872357.4      4.5860439      0.125          15.318813    
    126000   126            300.06176      51604.65       278.75268      186.46019      154348.74     -508547.02      162.34021      93.732179      123.01084      1871794.7      4.5874224      0.126          15.434874    
    127000   127            301.33321      51714.729      23.40318       233.47517      154887.31     -508337.32      162.47424      93.781713      122.8701       1872185.6      4.5864647      0.127          15.488731    
    128000   128            299.53398      51548.118     -295.8478      -233.78138      155173.98     -508135.29      162.58448      93.864756      122.72935      1872966.9      4.5845516      0.128          15.517398    
    129000   129            300.45923      51996.171     -94.757285     -29.18777       156112.46     -507901.07      162.66505      93.91873       122.58861      1872822.4      4.5849053      0.129          15.611246    
    130000   130            299.43885      52661.669      294.56986      448.81767      157241.62     -507695.45      162.75623      93.944376      122.44787      1872231.8      4.5863514      0.13           15.724162    
    131000   131            300.10897      52277.465     -25.114365     -347.09143      157204.6      -507495.01      162.85677      94.053936      122.30712      1873417.3      4.5834493      0.131          15.72046     
    132000   132            299.7918       52416.864     -280.38372     -224.78619      157755.76     -507289.94      162.99441      94.096328      122.16638      1873687.2      4.5827892      0.132          15.775576    
    133000   133            301.44334      53080.458      175.25434      167.41624      158898.7      -507080.71      163.07164      94.133617      122.02563      1873157.3      4.5840854      0.133          15.88987     
    134000   134            300.35078      53121.294     -42.890572      79.779552      159326.99     -506827.92      163.1904       94.203359      121.88489      1873746.6      4.5826439      0.134          15.932699    
    135000   135            299.7947       53105.448     -305.88347     -35.040544      159657.27     -506613.69      163.32562      94.262135      121.74414      1874302.4      4.5812847      0.135          15.965727    
    136000   136            299.42734      53625.947      177.81167      53.66827       160646.36     -506412.44      163.36209      94.332         121.6034       1873941.5      4.5821672      0.136          16.064636    
    137000   137            300.37943      53655.678     -2.4946803     -29.364054      160998.89     -506171.76      163.48914      94.397176      121.46265      1874522.5      4.5807468      0.137          16.099889    
    138000   138            299.94803      53524.377     -294.98117     -298.59157      161166.7      -505961.72      163.62901      94.46237       121.32191      1875246.5      4.5789784      0.138          16.11667     
    139000   139            300.94877      54163.446      98.742136      156.55079      162235.04     -505725.47      163.71064      94.504083      121.18116      1874833        4.5799882      0.139          16.223504    
    140000   140            299.22586      54181.361      118.63523     -120.57929      162546.03     -505508.75      163.80481      94.583223      121.04042      1875301.8      4.5788433      0.14           16.254603    
    141000   141            300.83811      54297.066      8.9388191     -122.48015      163004.74     -505267.05      163.92313      94.646466      120.89967      1875727.7      4.5778038      0.141          16.300474    
    142000   142            299.89728      54672.442      257.70813      55.413511      163704.2      -505054.27      163.99278      94.711236      120.75893      1875622.7      4.5780599      0.142          16.37042     
    143000   143            299.66524      54386.875     -234.92165     -230.25515      163625.8      -504845.19      164.14882      94.783432      120.61818      1876648.7      4.575557       0.143          16.36258     
    144000   144            301.14086      54994.691      108.10303      321.92872      164554.04     -504618.69      164.25942      94.809374      120.47744      1876235.3      4.5765652      0.144          16.455404    
    145000   145            300.74203      55003.626      88.240985      90.714899      164831.92     -504369.66      164.35029      94.897613      120.3367       1876825.3      4.5751265      0.145          16.483192    
    146000   146            299.02395      54901.274     -140.49802     -58.759926      164903.08     -504154.88      164.48437      94.965541      120.19595      1877502.5      4.5734764      0.146          16.490308    
    147000   147            299.35251      55237.924      148.97367      23.207541      165541.59     -503898.56      164.57597      95.028163      120.05521      1877585.6      4.5732738      0.147          16.554159    
    148000   148            300.07776      55076.996      200.28669     -429.12133      165459.82     -503672.39      164.64051      95.145492      119.91446      1878436.3      4.5712028      0.148          16.545982    
    149000   149            301.64569      55364.612     -28.000936      114.60099      166007.24     -503450.34      164.83162      95.151338      119.77372      1878524.9      4.5709871      0.149          16.600724    
    150000   150            300.21418      55328.336     -37.278014      61.765715      165960.52     -503201.54      164.93905      95.234754      119.63297      1879186.3      4.5693784      0.15           16.596052    
    151000   151            300.56969      55223.344     -11.781166     -179.90677      165861.72     -502942.23      165.05556      95.32025       119.49223      1879987.6      4.5674308      0.151          16.586172    
    152000   152            299.03753      55646.097      246.25628      304.38863      166387.65     -502745.63      165.19299      95.340742      119.35148      1879740.8      4.5680305      0.152          16.638765    
    153000   153            300.54037      55037.968     -304.11193     -249.30643      165667.32     -502486         165.32473      95.464452      119.21074      1881459.5      4.5638576      0.153          16.566732    
    154000   154            299.52269      55223.657      45.09027       35.79424       165590.09     -502227.2       165.45354      95.517829      119.06999      1881753.9      4.5631434      0.154          16.559009    
    155000   155            301.04928      54936.029      198.24301      186.39636      164423.45     -501992.95      165.59377      95.607572      118.92925      1882890        4.5603901      0.155          16.442345    
    156000   156            302.98642      52740.099     -109.21796     -177.14767      158506.66     -502001.4       165.79556      95.820684      118.7885       1887150.7      4.5500941      0.156          15.850666    
    157000   157            332.40322      45837.881     -192.23564      62.230485      137643.65     -503603.98      165.91347      96.346891      118.64776      1896613.7      4.5273917      0.157          13.764365    
    158000   158            356.30392      31502.138     -88.3384        181.82301      94412.929     -507860.72      165.52417      97.340551      118.50701      1909410.4      4.4970497      0.158          9.4412929    
    159000   159            319.09286      17854.844     -46.566106      136.67068      53474.427     -511853.86      164.64236      98.477462      118.36627      1919138.8      4.4742532      0.159          5.3474427    
    160000   160            301.00263      12623.197      141.12609     -98.983357      37827.447     -513391.06      163.9155       99.219839      118.22553      1922780.8      4.4657785      0.16           3.7827447    
    161000   161            300.01686      10925.726     -119.27226     -142.50107      33038.952     -514032.07      163.76042      99.477077      118.08478      1923649.2      4.4637624      0.161          3.3038952    
    162000   162            300.43638      10181.565     -268.83284      188.52445      30625.005     -514411.34      163.8336       99.550089      117.94404      1923625.9      4.4638165      0.162          3.0625005    
    163000   163            301.0738       9662.8869     -14.687691      92.512416      28910.836     -514658.83      163.86245      99.657938      117.80329      1923750.6      4.4635272      0.163          2.8910836    
    164000   164            300.09003      9201.5664     -17.611067     -124.59834      27746.909     -514866.53      163.86182      99.785684      117.66255      1923907.9      4.4631624      0.164          2.7746909    
    165000   165            299.85409      9166.1024      154.67191      41.683432      27301.952     -515041.7       163.91956      99.840517      117.5218       1923340        4.4644802      0.165          2.7301952    
    166000   166            299.90837      9028.221      -48.618093     -3.3773852      27136.659     -515151.26      163.92753      99.954869      117.38106      1923330.3      4.4645027      0.166          2.7136659    
    167000   167            300.1198       9041.4254     -61.484849      208.28604      26977.475     -515262.86      163.99079      100.01283      117.24031      1922879.9      4.4655483      0.167          2.6977475    
    168000   168            300.10127      8851.1321     -101.32826     -334.67899      26989.403     -515315.88      164.04633      100.10942      117.09957      1923077.5      4.4650896      0.168          2.6989403    
    169000   169            299.6756       8633.5052     -371.08451     -382.45837      26654.059     -515395.72      164.14402      100.17738      116.95882      1923214.5      4.4647714      0.169          2.6654059    
    170000   170            299.6566       8810.1796     -239.13146     -261.47023      26931.14      -515445.42      164.21679      100.23073      116.81808      1922775.2      4.4657916      0.17           2.693114     
    171000   171            299.98612      9164.5976      60.554052     -64.09023       27497.329     -515511         164.23212      100.29921      116.67733      1921950.1      4.4677086      0.171          2.7497329    
    172000   172            299.63574      9345.7572      116.87045      92.51439       27827.887     -515578.68      164.34381      100.32677      116.53659      1921465        4.4688367      0.172          2.7827887    
    173000   173            301.20184      9413.8059      44.363613      98.301017      28098.753     -515603.47      164.44548      100.37453      116.39584      1921245.9      4.4693463      0.173          2.8098753    
    174000   174            299.99143      9729.2167      177.82026      54.146737      28955.683     -515667.89      164.48757      100.43303      116.2551       1920532.6      4.4710062      0.174          2.8955683    
    175000   175            299.59104      9907.7169      338.16504      81.23754       29303.748     -515662.95      164.57569      100.4828       116.11436      1920186        4.4718132      0.175          2.9303748    
    176000   176            300.43726      9949.2755      198.65934      94.138142      29555.029     -515704.3       164.67677      100.53587      115.97361      1920050.1      4.4721299      0.176          2.9555029    
    177000   177            299.78443      10267.83       374.1617       218.69557      30210.634     -515722.6       164.69509      100.61124      115.83287      1919371.2      4.4737116      0.177          3.0210634    
    178000   178            299.73404      10274.693      283.38064      76.227896      30464.47      -515723.96      164.80899      100.66425      115.69212      1919375.4      4.4737017      0.178          3.046447     
    179000   179            299.06483      10417.257      397.2963       49.389133      30805.084     -515779.92      164.89494      100.70897      115.55138      1918892.4      4.4748279      0.179          3.0805084    
    180000   180            301.71097      10403.082      156.02461      204.93447      30848.288     -515825.06      165.0112       100.75528      115.41063      1918788.2      4.4750708      0.18           3.0848288    
    181000   181            299.85147      10614.899      207.00925      259.45319      31378.234     -515854.53      165.10326      100.80176      115.26989      1918402        4.4759718      0.181          3.1378234    
    182000   182            300.30977      10739.057      255.17603      242.0562       31719.939     -515838.67      165.11512      100.90431      115.12914      1918146.7      4.4765675      0.182          3.1719939    
    183000   183            299.66911      10755.298      15.576633      147.42178      32102.895     -515894.28      165.17964      100.98565      114.9884       1918095.4      4.4766873      0.183          3.2102895    
    184000   184            300.6892       10873.994      116.76741      37.948124      32467.267     -515878.6       165.25194      101.05735      114.84765      1917946.9      4.4770337      0.184          3.2467267    
    185000   185            300.12308      11037.259      268.91878     -109.49272      32952.35      -515908.83      165.30201      101.12949      114.70691      1917544.9      4.4779724      0.185          3.295235     
    186000   186            300.72207      11055.33       98.079819     -132.51442      33200.423     -515891.07      165.45498      101.16354      114.56616      1917609.8      4.4778209      0.186          3.3200423    
    187000   187            299.45582      11350.272      243.99301      13.260074      33793.562     -515914.58      165.5128       101.22717      114.42542      1917128.3      4.4789456      0.187          3.3793562    
    188000   188            299.38009      11551.133      166.00117      223.114        34264.283     -515906.54      165.64369      101.2566       114.28467      1916841.7      4.4796153      0.188          3.4264283    
    189000   189            300.39574      11584.693      4.3568819      48.127169      34701.594     -515912.44      165.71588      101.33328      114.14393      1916765.7      4.4797927      0.189          3.4701594    
    190000   190            300.04682      11777.753     -26.432475      152.6335       35207.058     -515915.35      165.7889       101.39459      114.00318      1916404.6      4.4806368      0.19           3.5207058    
    191000   191            300.18999      11915.558      199.2909       82.823221      35464.561     -515916.65      165.84641      101.47397      113.86244      1916201.7      4.4811113      0.191          3.5464561    
    192000   192            300.17594      12044.807      148.15716      210.84224      35775.421     -515932.38      165.9552       101.52554      113.7217       1916061.8      4.4814386      0.192          3.5775421    
    193000   193            300.40818      12174.866      244.32757      97.788071      36182.484     -515944.35      166.0444       101.5799       113.58095      1915744.3      4.4821814      0.193          3.6182484    
    194000   194            301.06652      12137.889      73.402593     -21.031667      36361.295     -515940.64      166.16004      101.64269      113.44021      1915886.4      4.4818489      0.194          3.6361295    
    195000   195            300.64445      12174.072     -94.115919     -198.58732      36814.92      -515945.69      166.24913      101.70472      113.29946      1915703.7      4.4822764      0.195          3.681492     
    196000   196            299.2706       12430.69       73.590233     -120.62197      37339.103     -515922.95      166.32593      101.76819      113.15872      1915402.3      4.4829816      0.196          3.7339103    
    197000   197            300.1818       12640.348     -11.045239      154.57135      37777.517     -515937.99      166.44266      101.79953      113.01797      1914952.2      4.4840354      0.197          3.7777517    
    198000   198            300.16648      12838.982     -75.359923      256.06662      38336.239     -515946.65      166.51059      101.86833      112.87723      1914641.1      4.4847639      0.198          3.8336239    
    199000   199            300.83407      12611.697     -214.14849     -127.82361      38177.062     -515962.44      166.57373      101.97528      112.73648      1914987.4      4.4839529      0.199          3.8177062    
    200000   200            300.29395      12681.267     -149.42998     -263.73009      38456.96      -516003.77      166.67724      102.03211      112.59574      1914851.6      4.4842708      0.2            3.845696     
    201000   201            299.89397      12805.367     -269.05902      114.71939      38570.44      -516034.62      166.75037      102.09962      112.45499      1914563.1      4.4849465      0.201          3.857044     
    202000   202            301.29402      12824.698     -126.30801     -86.764135      38687.165     -516078.21      166.79991      102.19238      112.31425      1914472.7      4.4851584      0.202          3.8687165    
    203000   203            300.60678      12662.787     -470.24747     -358.34992      38816.958     -516061.25      166.91165      102.2721       112.1735       1914847.2      4.4842812      0.203          3.8816958    
    204000   204            300.22529      13024.54      -94.39246      -91.907904      39259.921     -516096.54      166.91661      102.36455      112.03276      1914230.2      4.4857265      0.204          3.9259921    
    205000   205            300.28944      12883.461     -271.76148     -418.79896      39340.945     -516122.27      166.97544      102.46448      111.89201      1914366.2      4.4854078      0.205          3.9340945    
    206000   206            300.99394      12971.643     -375.12974     -148.73054      39438.789     -516147.64      167.08274      102.51592      111.75127      1914147.3      4.4859208      0.206          3.9438789    
    207000   207            299.59636      13008.672     -451.79469     -268.88234      39746.693     -516125.38      167.15659      102.60066      111.61053      1914162.5      4.4858852      0.207          3.9746693    
    208000   208            300.05827      13465.998     -89.664868      152.77775      40334.881     -516144.27      167.17667      102.66552      111.46978      1913187.1      4.4881723      0.208          4.0334881    
    209000   209            300.19055      13586.649      75.393055      141.71674      40542.838     -516171.82      167.24791      102.73653      111.32904      1912907.7      4.4888278      0.209          4.0542838    
    210000   210            298.49991      13605.74       59.53629       88.138243      40669.545     -516172.71      167.33355      102.81374      111.18829      1912904.2      4.4888359      0.21           4.0669545    
    211000   211            300.15003      13706.984      40.070836     -90.222414      41171.103     -516200.07      167.41068      102.88467      111.04755      1912682.2      4.489357       0.211          4.1171103    
    212000   212            299.58598      13929.577     -120.56106     -105.19498      42014.486     -516205.24      167.52718      102.92385      110.9068       1912315.2      4.4902185      0.212          4.2014486    
    213000   213            299.25446      14195.712     -229.03033      47.081655      42769.083     -516203.89      167.61494      102.975        110.76606      1911838.5      4.4913381      0.213          4.2769083    
    214000   214            301.00625      14500.104     -140.30008      346.81187      43293.8       -516165.29      167.6912       103.03761      110.62531      1911439.6      4.4922755      0.214          4.32938      
    215000   215            300.77156      14755.057     -35.944433      408.22534      43892.89      -516178.22      167.7593       103.10616      110.48457      1911053.4      4.4931832      0.215          4.389289     
    216000   216            300.36859      14907.538      106.12803      90.742743      44525.744     -516150.46      167.77325      103.22093      110.34382      1910902.4      4.4935383      0.216          4.4525744    
    217000   217            300.73555      15120.43       72.430439      254.56277      45034.296     -516139.21      167.85857      103.27728      110.20308      1910478        4.4945365      0.217          4.5034296    
    218000   218            301.32774      15167.292      52.581045      137.4437       45311.852     -516126.42      167.98475      103.33491      110.06233      1910537.8      4.4943958      0.218          4.5311852    
    219000   219            302.0866       15066.334     -20.938951     -21.282748      45241.223     -516122.19      168.0774       103.41846      109.92159      1910690.6      4.4940365      0.219          4.5241223    
    220000   220            300.06157      15105.687     -34.976871     -15.694524      45367.731     -516117.93      168.20211      103.47275      109.78084      1910662.6      4.4941024      0.22           4.5367731    
    221000   221            300.42297      15227.913     -164.52801     -1.6499208      45849.918     -516144         168.32875      103.51502      109.6401       1910429.8      4.4946499      0.221          4.5849918    
    222000   222            300.23556      15388.627     -76.103115     -41.609489      46283.595     -516159.24      168.42537      103.57449      109.49936      1910169.4      4.4952626      0.222          4.6283595    
    223000   223            299.13381      15477.718      132.33878     -27.63475       46328.451     -516146.31      168.45607      103.68318      109.35861      1910064.1      4.4955106      0.223          4.6328451    
    224000   224            300.34313      15643.646      301.77748     -36.767914      46665.928     -516139.94      168.53246      103.76022      109.21787      1909889.1      4.4959224      0.224          4.6665928    
    225000   225            299.84303      15466.427     -97.727542      2.110399       46494.898     -516179.8       168.66754      103.82405      109.07712      1910131        4.495353       0.225          4.6494898    
    226000   226            298.71693      15427.797     -388.13327     -56.389481      46727.912     -516140.17      168.81745      103.87745      108.93638      1910343.7      4.4948524      0.226          4.6727912    
    227000   227            300.30887      15718.277     -123.18083     -1.4869997      47279.498     -516165.53      168.87986      103.942        108.79563      1909767        4.4962099      0.227          4.7279498    
    228000   228            300.53285      15905.439      214.43725     -128.7871       47630.666     -516155.58      168.9626       104.01024      108.65489      1909483.6      4.4968772      0.228          4.7630666    
    229000   229            299.41047      15975.167      29.841326     -1.5605703      47897.22      -516160.05      169.1479       104.0267       108.51414      1909403.7      4.4970654      0.229          4.789722     
    230000   230            299.81087      16200.557      98.366813      94.920256      48408.385     -516160.24      169.26862      104.06548      108.3734       1908999.6      4.4980174      0.23           4.8408385    
    231000   231            299.63749      16355.737     -33.097879      179.62358      48920.686     -516140.4       169.39057      104.11424      108.23265      1908787.9      4.4985162      0.231          4.8920686    
    232000   232            298.75108      16760.672      194.54187      399.55152      49687.923     -516119.68      169.49728      104.15253      108.09191      1908208.1      4.499883       0.232          4.9687923    
    233000   233            300.25415      16716.633     -57.509957      129.02226      50078.388     -516089.26      169.63372      104.21367      107.95116      1908377.1      4.4994845      0.233          5.0078388    
    234000   234            299.35771      16820.129      28.366262      21.096708      50410.923     -516074.42      169.73582      104.27743      107.81042      1908202.9      4.4998952      0.234          5.0410923    
    235000   235            301.61086      16944.043      8.2852204     -174.73071      50998.574     -516026.92      169.8258       104.35941      107.66967      1908221.2      4.4998522      0.235          5.0998574    
    236000   236            300.05886      17133.897     -110.54476     -70.981444      51583.216     -516021.43      169.92586      104.41821      107.52893      1907923.9      4.5005534      0.236          5.1583216    
    237000   237            299.48446      17165.317     -185.80511     -404.49819      52086.253     -515988.11      170.01012      104.50144      107.38819      1907891        4.5006309      0.237          5.2086253    
    238000   238            300.63203      17689.783     -173.16452      157.22318      53085.29      -515930.74      170.15327      104.51335      107.24744      1907212.2      4.5022328      0.238          5.308529     
    239000   239            300.84072      17666.721     -295.42646      46.480934      53249.109     -515905.53      170.26191      104.58751      107.1067       1907277.8      4.5020778      0.239          5.3249109    
    240000   240            301.67461      17774.779     -67.704241     -83.214871      53475.255     -515883.08      170.32568      104.67547      106.96595      1907087.5      4.502527       0.24           5.3475255    
    241000   241            299.02113      17755.373     -89.499772      120.38889      53235.231     -515916.15      170.43356      104.74619      106.82521      1907071.9      4.5025639      0.241          5.3235231    
    242000   242            299.59915      17484.896     -405.85574     -278.7188       53139.261     -515916.4       170.55537      104.83028      106.68446      1907450.7      4.5016698      0.242          5.3139261    
    243000   243            299.0861       17865.244     -2.2470175      21.251452      53576.726     -515889.6       170.64838      104.8819       106.54372      1906911.6      4.5029424      0.243          5.3576726    
    244000   244            299.08919      17895.706      206.05517     -265.93685      53746.999     -515893.01      170.72193      104.97188      106.40297      1906847.9      4.5030929      0.244          5.3746999    
    245000   245            300.11593      17972.456     -0.16644212     99.88455       53817.651     -515916.71      170.88202      105.00426      106.26223      1906699.3      4.5034438      0.245          5.3817651    
    246000   246            299.92296      18054.985      297.22251     -94.853216      53962.585     -515889.85      170.95654      105.09479      106.12148      1906646.7      4.503568       0.246          5.3962585    
    247000   247            300.47979      17931.27       1.5588521     -114.3899       53906.642     -515891.93      171.15625      105.12636      105.98074      1906915        4.5029344      0.247          5.3906642    
    248000   248            300.1881       17935.059     -105.25631      62.459184      53847.973     -515864.38      171.3427       105.15565      105.83999      1906988.3      4.5027613      0.248          5.3847973    
    249000   249            300.29922      17895.288      30.857657     -1.532641       53656.54      -515861.67      171.41417      105.25484      105.69925      1907044        4.5026298      0.249          5.365654     
    250000   250            301.60416      17731.341     -151.82661     -42.398687      53388.249     -515849.5       171.55656      105.32433      105.5585       1907345        4.5019192      0.25           5.3388249    
Loop time of 15062.8 on 1 procs for 250000 steps with 108000 atoms

Performance: 1.434 ns/day, 16.736 hours/ns, 16.597 timesteps/s, 1.792 Matom-step/s
99.0% CPU use with 1 MPI tasks x 1 OpenMP threads

MPI task timing breakdown:
Section |  min time  |  avg time  |  max time  |%varavg| %total
---------------------------------------------------------------
Pair    | 14764      | 14764      | 14764      |   0.0 | 98.01
Neigh   | 2.6166     | 2.6166     | 2.6166     |   0.0 |  0.02
Comm    | 46.137     | 46.137     | 46.137     |   0.0 |  0.31
Output  | 2.289      | 2.289      | 2.289      |   0.0 |  0.02
Modify  | 226.51     | 226.51     | 226.51     |   0.0 |  1.50
Other   |            | 21.68      |            |       |  0.14

Nlocal:         108000 ave      108000 max      108000 min
Histogram: 1 0 0 0 0 0 0 0 0 0
Nghost:          40604 ave       40604 max       40604 min
Histogram: 1 0 0 0 0 0 0 0 0 0
Neighs:    3.76813e+06 ave 3.76813e+06 max 3.76813e+06 min
Histogram: 1 0 0 0 0 0 0 0 0 0
FullNghs:  7.53626e+06 ave 7.53626e+06 max 7.53626e+06 min
Histogram: 1 0 0 0 0 0 0 0 0 0

Total # of neighbors = 7536258
Ave neighs/atom = 69.780167
Neighbor list builds = 805
Dangerous builds = 0
System init for write_data ...
System init for write_restart ...
Completed Ti 108k, 1e9 s^-1
Reference Lz after equilibration = 140.744672767265 Angstrom
Final compressive engineering strain = 0.249999999999999
Total wall time: 5:48:38
